Au                                      
   1.00000000000000     
     2.8861484068579393    0.0000000000000000    0.0000000000000000
    -1.4430742034289696    2.4994778394309618    0.0000000000000000
     0.0000000000000000    0.0000000000000000   45.9218333687446290
   Au
    12
Selective dynamics
Direct
  0.1000000000000014  0.1000000000000014  0.2177184420161780   T   T   T
  0.7666666666666657  0.4333333333333300  0.2694002361767147   T   T   T
  0.4333333333333300  0.7666666666666657  0.3204720744911000   T   T   T
  0.1000000000000014  0.1000000000000014  0.3717197060021888   T   T   T
  0.7666666666666657  0.4333333333333300  0.4230258201803423   F   F   F
  0.4333333333333300  0.7666666666666657  0.4743419400601141   F   F   F
  0.0999999999999943  0.1000000000000014  0.5256580599398859   F   F   F
  0.7666666666666657  0.4333333333333300  0.5769741798196577   F   F   F
  0.4333333333333300  0.7666666666666657  0.6282802939978112   T   T   T
  0.0999999999999943  0.1000000000000014  0.6795279255089000   T   T   T
  0.7666666666666657  0.4333333333333300  0.7305997638232924   T   T   T
  0.4333333333333300  0.7666666666666657  0.7822815579838220   T   T   T
 
  0.00000000E+00  0.00000000E+00  0.00000000E+00
  0.00000000E+00  0.00000000E+00  0.00000000E+00
  0.00000000E+00  0.00000000E+00  0.00000000E+00
  0.00000000E+00  0.00000000E+00  0.00000000E+00
  0.00000000E+00  0.00000000E+00  0.00000000E+00
  0.00000000E+00  0.00000000E+00  0.00000000E+00
  0.00000000E+00  0.00000000E+00  0.00000000E+00
  0.00000000E+00  0.00000000E+00  0.00000000E+00
  0.00000000E+00  0.00000000E+00  0.00000000E+00
  0.00000000E+00  0.00000000E+00  0.00000000E+00
  0.00000000E+00  0.00000000E+00  0.00000000E+00
  0.00000000E+00  0.00000000E+00  0.00000000E+00
