Au 
 1.0000000000000000
     2.8861484068579393    0.0000000000000000    0.0000000000000000
    -1.4430742034289696    2.4994778394309618    0.0000000000000000
     0.0000000000000000    0.0000000000000000   45.9218333687446290
 Au 
  12
Direct
  0.0999999999999997  0.1000000000000000  0.2177613406612422
  0.7666666666666658  0.4333333333333332  0.2690774605410163
  0.4333333333333318  0.7666666666666663  0.3203935804207905
  0.0999999999999981  0.1000000000000000  0.3717097003005647
  0.7666666666666639  0.4333333333333327  0.4230258201803389
  0.4333333333333304  0.7666666666666654  0.4743419400601130
  0.0999999999999968  0.0999999999999995  0.5256580599398870
  0.7666666666666632  0.4333333333333329  0.5769741798196611
  0.4333333333333287  0.7666666666666654  0.6282902996994354
  0.0999999999999975  0.0999999999999984  0.6796064195792095
  0.7666666666666627  0.4333333333333307  0.7309225394589838
  0.4333333333333279  0.7666666666666645  0.7822386593387578
