gold_fcc
 1.0000000000000000
     0.0000000000000000    2.0408151100000000    2.0408151100000000
     2.0408151100000000    0.0000000000000000    2.0408151100000000
     2.0408151100000000    2.0408151100000000    0.0000000000000000
 Au 
   1
Cartesian
  0.0000000000000000  0.0000000000000000  0.0000000000000000
