Au HCP thin film 0.960
 2.7254399999999999
     1.0000000000000000    0.0000000000000000    0.0000000000000000
    -0.5000000000000000    0.8660254037844387    0.0000000000000000
     0.0000000000000000    0.0000000000000000   17.4898379867995715
 Au 
  12
Direct
  0.1500000000000000  0.1500000000000000  0.2097865244010488
  0.4833333333333330  0.8166666666666662  0.2625526108735854
  0.1500000000000000  0.1500000000000000  0.3153186973461220
  0.4833333333333330  0.8166666666666662  0.3680847838186586
  0.1500000000000000  0.1500000000000000  0.4208508702911951
  0.4833333333333330  0.8166666666666662  0.4736169567637316
  0.1500000000000000  0.1500000000000000  0.5263830432362683
  0.4833333333333330  0.8166666666666662  0.5791491297088049
  0.1500000000000000  0.1500000000000000  0.6319152161813414
  0.4833333333333330  0.8166666666666662  0.6846813026538782
  0.1500000000000000  0.1500000000000000  0.7374473891264146
  0.4833333333333330  0.8166666666666662  0.7902134755989513
