Au bulk (111)-base 0.937                
   2.66866000000000     
     0.9999999999999999    0.0000000000000000    0.0000000000000000
    -0.4999999999999998    0.8660254037844387    0.0000000000000000
     0.0000000000000000    0.0000000000000000   11.8107730152054113
   Au
    12
Direct
  0.0999999896463563  0.0999999913556211  0.0416666445548550
  0.7666665492287028  0.4333334528921440  0.1250000243856989
  0.4333334457088632  0.7666665446032827  0.2083333755980816
  0.0999999962813389  0.1000000011886199  0.2916665329827743
  0.7666665511108722  0.4333334526913306  0.3749999788034318
  0.4333334575094306  0.7666665560881863  0.4583334428515634
  0.0999999982442649  0.0999999982111873  0.5416666403794619
  0.7666665483949695  0.4333334509302337  0.6250000169977877
  0.4333334559209521  0.7666665513268504  0.7083333723242965
  0.1000000020100058  0.0999999991178633  0.7916665338772610
  0.7666665515404606  0.4333334499934554  0.8749999849353916
  0.4333334544038001  0.7666665516012209  0.9583334523093961
 
  0.00000000E+00  0.00000000E+00  0.00000000E+00
  0.00000000E+00  0.00000000E+00  0.00000000E+00
  0.00000000E+00  0.00000000E+00  0.00000000E+00
  0.00000000E+00  0.00000000E+00  0.00000000E+00
  0.00000000E+00  0.00000000E+00  0.00000000E+00
  0.00000000E+00  0.00000000E+00  0.00000000E+00
  0.00000000E+00  0.00000000E+00  0.00000000E+00
  0.00000000E+00  0.00000000E+00  0.00000000E+00
  0.00000000E+00  0.00000000E+00  0.00000000E+00
  0.00000000E+00  0.00000000E+00  0.00000000E+00
  0.00000000E+00  0.00000000E+00  0.00000000E+00
  0.00000000E+00  0.00000000E+00  0.00000000E+00
