Au FCC thin film 0.997
 2.8390000000000000
     0.9999999999999999    0.0000000000000000    0.0000000000000000
    -0.4999999999999998    0.8660254037844387    0.0000000000000000
     0.0000000000000000    0.0000000000000000   16.1166611145497214
 Au 
  12
Direct
  0.1000000000000003  0.0999999999999999  0.2185543894984978
  0.7666666666666666  0.4333333333333331  0.2697263186805891
  0.4333333333333342  0.7666666666666664  0.3208982478626803
  0.1000000000000009  0.1000000000000000  0.3720701770447717
  0.7666666666666674  0.4333333333333332  0.4232421062268631
  0.4333333333333343  0.7666666666666666  0.4744140354089543
  0.1000000000000018  0.0999999999999999  0.5255859645910457
  0.7666666666666687  0.4333333333333331  0.5767578937731368
  0.4333333333333346  0.7666666666666672  0.6279298229552283
  0.1000000000000018  0.1000000000000004  0.6791017521373196
  0.7666666666666690  0.4333333333333342  0.7302736813194108
  0.4333333333333343  0.7666666666666673  0.7814456105015022
