Au 
 1.0000000000000000
     2.8860563274128936    0.0000000000000000    0.0000000000000000
    -1.4430281637064468    2.4993980962923854    0.0000000000000000
     0.0000000000000000    0.0000000000000000   45.9210063606720382
 Au 
  12
Direct
  0.1000000000000003  0.0999999999999999  0.2177652624042722
  0.7666666666666668  0.4333333333333332  0.2690806692398591
  0.4333333333333341  0.7666666666666662  0.3203960760754460
  0.1000000000000009  0.0999999999999993  0.3717114829110327
  0.7666666666666683  0.4333333333333325  0.4230268897466197
  0.4333333333333341  0.7666666666666662  0.4743422965822064
  0.1000000000000016  0.0999999999999990  0.5256577034177933
  0.7666666666666682  0.4333333333333316  0.5769731102533802
  0.4333333333333348  0.7666666666666648  0.6282885170889672
  0.1000000000000013  0.0999999999999984  0.6796039239245539
  0.7666666666666678  0.4333333333333314  0.7309193307601407
  0.4333333333333343  0.7666666666666639  0.7822347375957276
