Au thin film 0.999
 2.8361610000000002
     1.0000000000000000    0.0000000000000000    0.0000000000000000
    -0.5000000000000000    0.8660254037844387    0.0000000000000000
     0.0000000000000000    0.0000000000000000   16.0602466032358038
 Au 
  12
Direct
  0.1500000000000000  0.1500000000000000  0.2195416428324188
  0.4833333333333332  0.8166666666666663  0.2705340714083426
  0.1500000000000000  0.1500000000000000  0.3215264999842665
  0.4833333333333332  0.8166666666666663  0.3725189285601904
  0.1500000000000000  0.1500000000000000  0.4235113571361143
  0.4833333333333332  0.8166666666666663  0.4745037857120380
  0.1500000000000000  0.1500000000000000  0.5254962142879619
  0.4833333333333332  0.8166666666666663  0.5764886428638859
  0.1500000000000000  0.1500000000000000  0.6274810714398097
  0.4833333333333332  0.8166666666666663  0.6784735000157337
  0.1500000000000000  0.1500000000000000  0.7294659285916574
  0.4833333333333332  0.8166666666666663  0.7804583571675813
