Au bulk (111)-base 0.957
 2.7254399999999999
     0.9999999999999999    0.0000000000000000    0.0000000000000000
    -0.4999999999999998    0.8660254037844387    0.0000000000000000
     0.0000000000000000    0.0000000000000000   11.1859895996840191
 Au 
  12
Direct
  0.1000000000000003  0.0999999999999999  0.0416666666666666
  0.7666666666666666  0.4333333333333331  0.1249999999999999
  0.4333333333333342  0.7666666666666664  0.2083333333333332
  0.1000000000000009  0.1000000000000000  0.2916666666666667
  0.7666666666666674  0.4333333333333332  0.3750000000000000
  0.4333333333333343  0.7666666666666666  0.4583333333333332
  0.1000000000000017  0.0999999999999999  0.5416666666666665
  0.7666666666666687  0.4333333333333331  0.6249999999999996
  0.4333333333333346  0.7666666666666671  0.7083333333333330
  0.1000000000000017  0.1000000000000004  0.7916666666666665
  0.7666666666666690  0.4333333333333342  0.8749999999999998
  0.4333333333333342  0.7666666666666672  0.9583333333333331
