Au bulk (111)-base 0.957                
   2.72544000000000     
     0.9999999999999999    0.0000000000000000    0.0000000000000000
    -0.4999999999999998    0.8660254037844387    0.0000000000000000
     0.0000000000000000    0.0000000000000000   11.2190496632114591
   Au
    12
Direct
  0.0999999995126365  0.0999999994283812  0.0416666623298488
  0.7666666609778980  0.4333333391385404  0.1249999973511822
  0.4333333389893225  0.7666666609058295  0.2083333334887884
  0.1000000002312842  0.0999999998252567  0.2916666615779454
  0.7666666607449290  0.4333333391902864  0.3749999980476305
  0.4333333388874399  0.7666666610206657  0.4583333344251003
  0.1000000000714385  0.0999999998954950  0.5416666629084639
  0.7666666612894182  0.4333333393217537  0.6250000010406301
  0.4333333387766747  0.7666666608924873  0.7083333394619631
  0.1000000003330933  0.1000000001056000  0.7916666682206958
  0.7666666609199775  0.4333333389555949  0.8750000036305142
  0.4333333392659048  0.7666666613201050  0.9583333375172374
 
  0.00000000E+00  0.00000000E+00  0.00000000E+00
  0.00000000E+00  0.00000000E+00  0.00000000E+00
  0.00000000E+00  0.00000000E+00  0.00000000E+00
  0.00000000E+00  0.00000000E+00  0.00000000E+00
  0.00000000E+00  0.00000000E+00  0.00000000E+00
  0.00000000E+00  0.00000000E+00  0.00000000E+00
  0.00000000E+00  0.00000000E+00  0.00000000E+00
  0.00000000E+00  0.00000000E+00  0.00000000E+00
  0.00000000E+00  0.00000000E+00  0.00000000E+00
  0.00000000E+00  0.00000000E+00  0.00000000E+00
  0.00000000E+00  0.00000000E+00  0.00000000E+00
  0.00000000E+00  0.00000000E+00  0.00000000E+00
