Au HCP thin film 1.000                  
   2.83900000000000     
     1.0000000000000000    0.0000000000000000    0.0000000000000000
    -0.5000000000000000    0.8660254037844387    0.0000000000000000
     0.0000000000000000    0.0000000000000000   16.0261964514941724
   Au
    12
Direct
  0.1499999999999986  0.1499999999999986  0.2071927329690908
  0.4833333333333343  0.8166666666666629  0.2608486018486076
  0.1499999999999986  0.1499999999999986  0.3138326063525412
  0.4833333333333343  0.8166666666666629  0.3669729002168367
  0.1499999999999986  0.1499999999999986  0.4202032211233302
  0.4833333333333343  0.8166666666666629  0.4733930656555003
  0.1499999999999986  0.1499999999999986  0.5266069343444997
  0.4833333333333343  0.8166666666666629  0.5797967788766698
  0.1499999999999986  0.1499999999999986  0.6330270997831633
  0.4833333333333343  0.8166666666666629  0.6861673936474588
  0.1499999999999986  0.1499999999999986  0.7391513981513924
  0.4833333333333343  0.8166666666666629  0.7928072670309092
 
  0.00000000E+00  0.00000000E+00  0.00000000E+00
  0.00000000E+00  0.00000000E+00  0.00000000E+00
  0.00000000E+00  0.00000000E+00  0.00000000E+00
  0.00000000E+00  0.00000000E+00  0.00000000E+00
  0.00000000E+00  0.00000000E+00  0.00000000E+00
  0.00000000E+00  0.00000000E+00  0.00000000E+00
  0.00000000E+00  0.00000000E+00  0.00000000E+00
  0.00000000E+00  0.00000000E+00  0.00000000E+00
  0.00000000E+00  0.00000000E+00  0.00000000E+00
  0.00000000E+00  0.00000000E+00  0.00000000E+00
  0.00000000E+00  0.00000000E+00  0.00000000E+00
  0.00000000E+00  0.00000000E+00  0.00000000E+00
