Au bulk (0001)-base 1.003               
   2.84850000000000     
     1.0000000000000002    0.0000000000000000    0.0000000000000000
    -0.5000000000000001    0.8660254037844387    0.0000000000000000
     0.0000000000000000    0.0000000000000000   10.1580627832011938
   Au
    12
Direct
  0.1500000000875901  0.1499999992812892  0.0416666738790832
  0.4833333321970962  0.8166666665024551  0.1250000028279698
  0.1500000008928877  0.1499999995226876  0.2083333304241139
  0.4833333340319841  0.8166666672321027  0.2916666550189388
  0.1499999999607091  0.1500000006766367  0.3749999852410769
  0.4833333333818940  0.8166666678524209  0.4583333206294531
  0.1500000000273669  0.1499999991455238  0.5416666580675792
  0.4833333322365052  0.8166666657818602  0.6249999999638626
  0.1500000000338091  0.1499999992455385  0.7083333406982334
  0.4833333342984336  0.8166666684968508  0.7916666759255527
  0.1499999992194772  0.1499999997245553  0.8750000117573766
  0.4833333336322441  0.8166666665380481  0.9583333455667596
 
  0.00000000E+00  0.00000000E+00  0.00000000E+00
  0.00000000E+00  0.00000000E+00  0.00000000E+00
  0.00000000E+00  0.00000000E+00  0.00000000E+00
  0.00000000E+00  0.00000000E+00  0.00000000E+00
  0.00000000E+00  0.00000000E+00  0.00000000E+00
  0.00000000E+00  0.00000000E+00  0.00000000E+00
  0.00000000E+00  0.00000000E+00  0.00000000E+00
  0.00000000E+00  0.00000000E+00  0.00000000E+00
  0.00000000E+00  0.00000000E+00  0.00000000E+00
  0.00000000E+00  0.00000000E+00  0.00000000E+00
  0.00000000E+00  0.00000000E+00  0.00000000E+00
  0.00000000E+00  0.00000000E+00  0.00000000E+00
