Au                                      
   1.00000000000000     
     2.8590000000000000    0.0000000000000000    0.0000000000000000
    -1.4295000000000000    2.4759666294197111    0.0000000000000000
     0.0000000000000000    0.0000000000000000   46.4173445935311904
   Au
    12
Direct
  0.1499999999999986  0.1499999999999986  0.2153117063027026
  0.4833333333333343  0.8166666666666629  0.2673756001981204
  0.1499999999999986  0.1499999999999986  0.3188957577609036
  0.4833333333333343  0.8166666666666629  0.3706031578955147
  0.1499999999999986  0.1499999999999986  0.4223827002814685
  0.4833333333333343  0.8166666666666629  0.4741169087386505
  0.1499999999999986  0.1499999999999986  0.5258830912613495
  0.4833333333333343  0.8166666666666629  0.5776172997185315
  0.1499999999999986  0.1499999999999986  0.6293968421044853
  0.4833333333333343  0.8166666666666629  0.6811042422390965
  0.1499999999999986  0.1499999999999986  0.7326243998018798
  0.4833333333333343  0.8166666666666629  0.7846882936972975
 
  0.00000000E+00  0.00000000E+00  0.00000000E+00
  0.00000000E+00  0.00000000E+00  0.00000000E+00
  0.00000000E+00  0.00000000E+00  0.00000000E+00
  0.00000000E+00  0.00000000E+00  0.00000000E+00
  0.00000000E+00  0.00000000E+00  0.00000000E+00
  0.00000000E+00  0.00000000E+00  0.00000000E+00
  0.00000000E+00  0.00000000E+00  0.00000000E+00
  0.00000000E+00  0.00000000E+00  0.00000000E+00
  0.00000000E+00  0.00000000E+00  0.00000000E+00
  0.00000000E+00  0.00000000E+00  0.00000000E+00
  0.00000000E+00  0.00000000E+00  0.00000000E+00
  0.00000000E+00  0.00000000E+00  0.00000000E+00
