Au 
 1.0000000000000000
     2.8590000000000000    0.0000000000000000    0.0000000000000000
    -1.4295000000000000    2.4759666294197111    0.0000000000000000
     0.0000000000000000    0.0000000000000000   46.4173445935311904
 Au 
  12
Direct
  0.1500000000000000  0.1500000000000000  0.2154367098671478
  0.4833333333333355  0.8166666666666642  0.2671754898913027
  0.1500000000000000  0.1500000000000000  0.3189142699154577
  0.4833333333333355  0.8166666666666642  0.3706530499396127
  0.1500000000000000  0.1500000000000000  0.4223918299637676
  0.4833333333333355  0.8166666666666642  0.4741306099879227
  0.1500000000000000  0.1500000000000000  0.5258693900120774
  0.4833333333333355  0.8166666666666642  0.5776081700362323
  0.1500000000000000  0.1500000000000000  0.6293469500603874
  0.4833333333333355  0.8166666666666642  0.6810857300845425
  0.1500000000000000  0.1500000000000000  0.7328245101086975
  0.4833333333333355  0.8166666666666642  0.7845632901328524
