Au HCP thin film 0.940
 2.6686600000000000
     1.0000000000000000    0.0000000000000000    0.0000000000000000
    -0.5000000000000000    0.8660254037844387    0.0000000000000000
     0.0000000000000000    0.0000000000000000   18.3078284758195551
 Au 
  12
Direct
  0.1500000000000000  0.1500000000000000  0.2046774129285750
  0.4833333333333331  0.8166666666666661  0.2583724287597432
  0.1500000000000000  0.1500000000000000  0.3120674445909115
  0.4833333333333331  0.8166666666666661  0.3657624604220795
  0.1500000000000000  0.1500000000000000  0.4194574762532478
  0.4833333333333331  0.8166666666666661  0.4731524920844158
  0.1500000000000000  0.1500000000000000  0.5268475079155841
  0.4833333333333331  0.8166666666666661  0.5805425237467523
  0.1500000000000000  0.1500000000000000  0.6342375395779204
  0.4833333333333331  0.8166666666666661  0.6879325554090888
  0.1500000000000000  0.1500000000000000  0.7416275712402567
  0.4833333333333331  0.8166666666666661  0.7953225870714249
