Au FCC thin film 0.937
 2.6686600000000000
     0.9999999999999999    0.0000000000000000    0.0000000000000000
    -0.4999999999999998    0.8660254037844387    0.0000000000000000
     0.0000000000000000    0.0000000000000000   18.4167454102362456
 Au 
  12
Direct
  0.1000000000000002  0.0999999999999999  0.2034669473515177
  0.7666666666666666  0.4333333333333331  0.2573820478330600
  0.4333333333333343  0.7666666666666664  0.3112971483146021
  0.1000000000000009  0.1000000000000000  0.3652122487961444
  0.7666666666666675  0.4333333333333332  0.4191273492776867
  0.4333333333333344  0.7666666666666665  0.4730424497592289
  0.1000000000000017  0.0999999999999999  0.5269575502407710
  0.7666666666666688  0.4333333333333331  0.5808726507223131
  0.4333333333333347  0.7666666666666672  0.6347877512038554
  0.1000000000000017  0.1000000000000004  0.6887028516853976
  0.7666666666666692  0.4333333333333342  0.7426179521669400
  0.4333333333333343  0.7666666666666672  0.7965330526484822
