Au FCC thin film 0.937                  
   2.66866000000000     
     0.9999999999999999    0.0000000000000000    0.0000000000000000
    -0.4999999999999998    0.8660254037844387    0.0000000000000000
     0.0000000000000000    0.0000000000000000   18.4167454102362456
   Au
    12
Direct
  0.1000000000000014  0.1000000000000014  0.2038275994306531
  0.7666666666666657  0.4333333333333300  0.2592937065917269
  0.4333333333333371  0.7666666666666657  0.3131021813345995
  0.1000000000000014  0.1000000000000014  0.3664878782159846
  0.7666666666666657  0.4333333333333300  0.4198466438916739
  0.4333333333333371  0.7666666666666657  0.4732686954416678
  0.1000000000000014  0.1000000000000014  0.5267313045583322
  0.7666666666666657  0.4333333333333300  0.5801533561083261
  0.4333333333333371  0.7666666666666657  0.6335121217840154
  0.1000000000000014  0.1000000000000014  0.6868978186654005
  0.7666666666666657  0.4333333333333371  0.7407062934082731
  0.4333333333333371  0.7666666666666657  0.7961724005693469
 
  0.00000000E+00  0.00000000E+00  0.00000000E+00
  0.00000000E+00  0.00000000E+00  0.00000000E+00
  0.00000000E+00  0.00000000E+00  0.00000000E+00
  0.00000000E+00  0.00000000E+00  0.00000000E+00
  0.00000000E+00  0.00000000E+00  0.00000000E+00
  0.00000000E+00  0.00000000E+00  0.00000000E+00
  0.00000000E+00  0.00000000E+00  0.00000000E+00
  0.00000000E+00  0.00000000E+00  0.00000000E+00
  0.00000000E+00  0.00000000E+00  0.00000000E+00
  0.00000000E+00  0.00000000E+00  0.00000000E+00
  0.00000000E+00  0.00000000E+00  0.00000000E+00
  0.00000000E+00  0.00000000E+00  0.00000000E+00
