Au HCP thin film 1.003                  
   2.84850000000000     
     1.0000000000000002    0.0000000000000000    0.0000000000000000
    -0.5000000000000001    0.8660254037844387    0.0000000000000000
     0.0000000000000000    0.0000000000000000   15.9131390835782867
   Au
    12
Direct
  0.1499999999999986  0.1499999999999986  0.2072609417780598
  0.4833333333333343  0.8166666666666629  0.2608535237504057
  0.1499999999999986  0.1499999999999986  0.3138256632941037
  0.4833333333333343  0.8166666666666629  0.3669738346529314
  0.1499999999999986  0.1499999999999986  0.4202050866190845
  0.4833333333333343  0.8166666666666629  0.4733933486346089
  0.1499999999999986  0.1499999999999986  0.5266066513653982
  0.4833333333333343  0.8166666666666629  0.5797949133809155
  0.1499999999999986  0.1499999999999986  0.6330261653470686
  0.4833333333333343  0.8166666666666629  0.6861743367058963
  0.1499999999999986  0.1499999999999986  0.7391464762495943
  0.4833333333333343  0.8166666666666629  0.7927390582219402
 
  0.00000000E+00  0.00000000E+00  0.00000000E+00
  0.00000000E+00  0.00000000E+00  0.00000000E+00
  0.00000000E+00  0.00000000E+00  0.00000000E+00
  0.00000000E+00  0.00000000E+00  0.00000000E+00
  0.00000000E+00  0.00000000E+00  0.00000000E+00
  0.00000000E+00  0.00000000E+00  0.00000000E+00
  0.00000000E+00  0.00000000E+00  0.00000000E+00
  0.00000000E+00  0.00000000E+00  0.00000000E+00
  0.00000000E+00  0.00000000E+00  0.00000000E+00
  0.00000000E+00  0.00000000E+00  0.00000000E+00
  0.00000000E+00  0.00000000E+00  0.00000000E+00
  0.00000000E+00  0.00000000E+00  0.00000000E+00
