Au thin film 1.003
 2.8475169999999999
     1.0000000000000000    0.0000000000000000    0.0000000000000000
    -0.5000000000000000    0.8660254037844387    0.0000000000000000
     0.0000000000000000    0.0000000000000000   15.9247748856071656
 Au 
  12
Direct
  0.1500000000000000  0.1500000000000000  0.2205262907176466
  0.4833333333333331  0.8166666666666663  0.2713396924053472
  0.1500000000000000  0.1500000000000000  0.3221530940930479
  0.4833333333333331  0.8166666666666663  0.3729664957807484
  0.1500000000000000  0.1500000000000000  0.4237798974684491
  0.4833333333333331  0.8166666666666663  0.4745932991561496
  0.1500000000000000  0.1500000000000000  0.5254067008438502
  0.4833333333333331  0.8166666666666663  0.5762201025315510
  0.1500000000000000  0.1500000000000000  0.6270335042192515
  0.4833333333333331  0.8166666666666663  0.6778469059069523
  0.1500000000000000  0.1500000000000000  0.7286603075946526
  0.4833333333333331  0.8166666666666663  0.7794737092823533
