Au                                      
   1.00000000000000     
     2.8861484068579393    0.0000000000000000    0.0000000000000000
    -1.4430742034289696    2.4994778394309618    0.0000000000000000
     0.0000000000000000    0.0000000000000000   45.9218333687446290
   Au
    12
Direct
  0.1000000151565687  0.1000000160022343  0.2176989966103784
  0.7666666513487362  0.4333333250350040  0.2693818645400899
  0.4333333524933206  0.7666666795938120  0.3204542076093388
  0.1000000028615601  0.1000000017953781  0.3717014400649514
  0.7666666560551162  0.4333333280939335  0.4230105900245238
  0.4333333236385560  0.7666666503551487  0.4743454886706057
  0.0999999865162937  0.0999999868915303  0.5256545152794442
  0.7666666554196925  0.4333333274095151  0.5769894119614606
  0.4333333365708154  0.7666666646815974  0.6282985594497048
  0.1000000158919343  0.1000000160587136  0.6795457902001042
  0.7666666516183147  0.4333333248670786  0.7306181328921894
  0.4333333524290659  0.7666666792160433  0.7823010026972158
 
  0.00000000E+00  0.00000000E+00  0.00000000E+00
  0.00000000E+00  0.00000000E+00  0.00000000E+00
  0.00000000E+00  0.00000000E+00  0.00000000E+00
  0.00000000E+00  0.00000000E+00  0.00000000E+00
  0.00000000E+00  0.00000000E+00  0.00000000E+00
  0.00000000E+00  0.00000000E+00  0.00000000E+00
  0.00000000E+00  0.00000000E+00  0.00000000E+00
  0.00000000E+00  0.00000000E+00  0.00000000E+00
  0.00000000E+00  0.00000000E+00  0.00000000E+00
  0.00000000E+00  0.00000000E+00  0.00000000E+00
  0.00000000E+00  0.00000000E+00  0.00000000E+00
  0.00000000E+00  0.00000000E+00  0.00000000E+00
