Au thin film 0.900
 2.5550999999999999
     1.0000000000000000    0.0000000000000000    0.0000000000000000
    -0.5000000000000000    0.8660254037844388    0.0000000000000000
     0.0000000000000000    0.0000000000000000   20.1477324826464042
 Au 
  12
Direct
  0.1500000000000000  0.1500000000000000  0.1942521893484358
  0.4833333333333330  0.8166666666666662  0.2498427003759929
  0.1500000000000000  0.1500000000000000  0.3054332114035501
  0.4833333333333330  0.8166666666666662  0.3610237224311071
  0.1500000000000000  0.1500000000000000  0.4166142334586643
  0.4833333333333330  0.8166666666666662  0.4722047444862213
  0.1500000000000000  0.1500000000000000  0.5277952555137785
  0.4833333333333330  0.8166666666666662  0.5833857665413358
  0.1500000000000000  0.1500000000000000  0.6389762775688929
  0.4833333333333330  0.8166666666666662  0.6945667885964502
  0.1500000000000000  0.1500000000000000  0.7501572996240070
  0.4833333333333330  0.8166666666666662  0.8057478106515643
