Au FCC thin film 1.000                  
   2.84850000000000     
     0.9999999999999999    0.0000000000000000    0.0000000000000000
    -0.4999999999999998    0.8660254037844387    0.0000000000000000
     0.0000000000000000    0.0000000000000000   16.0027016389323826
   Au
    12
Direct
  0.1000000000000014  0.1000000000000014  0.2102984591265198
  0.7666666666666657  0.4333333333333300  0.2633998018170658
  0.4333333333333371  0.7666666666666657  0.3157772102574086
  0.1000000000000014  0.1000000000000014  0.3683652820918155
  0.7666666666666657  0.4333333333333300  0.4210333642327413
  0.4333333333333371  0.7666666666666657  0.4736715062696035
  0.1000000000000014  0.1000000000000014  0.5263284937303965
  0.7666666666666657  0.4333333333333300  0.5789666357672587
  0.4333333333333371  0.7666666666666657  0.6316347179081845
  0.1000000000000014  0.1000000000000014  0.6842227897425914
  0.7666666666666657  0.4333333333333371  0.7366001981829342
  0.4333333333333371  0.7666666666666657  0.7897015408734802
 
  0.00000000E+00  0.00000000E+00  0.00000000E+00
  0.00000000E+00  0.00000000E+00  0.00000000E+00
  0.00000000E+00  0.00000000E+00  0.00000000E+00
  0.00000000E+00  0.00000000E+00  0.00000000E+00
  0.00000000E+00  0.00000000E+00  0.00000000E+00
  0.00000000E+00  0.00000000E+00  0.00000000E+00
  0.00000000E+00  0.00000000E+00  0.00000000E+00
  0.00000000E+00  0.00000000E+00  0.00000000E+00
  0.00000000E+00  0.00000000E+00  0.00000000E+00
  0.00000000E+00  0.00000000E+00  0.00000000E+00
  0.00000000E+00  0.00000000E+00  0.00000000E+00
  0.00000000E+00  0.00000000E+00  0.00000000E+00
