Au thin film 0.998
 2.8333219999999999
     1.0000000000000000    0.0000000000000000    0.0000000000000000
    -0.5000000000000000    0.8660254037844387    0.0000000000000000
     0.0000000000000000    0.0000000000000000   16.0944192051410013
 Au 
  12
Direct
  0.1500000000000000  0.1500000000000000  0.2192950138444273
  0.4833333333333332  0.8166666666666663  0.2703322840545314
  0.1500000000000000  0.1500000000000000  0.3213695542646355
  0.4833333333333332  0.8166666666666663  0.3724068244747397
  0.1500000000000000  0.1500000000000000  0.4234440946848438
  0.4833333333333332  0.8166666666666663  0.4744813648949478
  0.1500000000000000  0.1500000000000000  0.5255186351050520
  0.4833333333333332  0.8166666666666663  0.5765559053151562
  0.1500000000000000  0.1500000000000000  0.6275931755252603
  0.4833333333333332  0.8166666666666663  0.6786304457353647
  0.1500000000000000  0.1500000000000000  0.7296677159454685
  0.4833333333333332  0.8166666666666663  0.7807049861555727
