Au bulk (0001)-base 0.940               
   2.66866000000000     
     1.0000000000000000    0.0000000000000000    0.0000000000000000
    -0.5000000000000000    0.8660254037844387    0.0000000000000000
     0.0000000000000000    0.0000000000000000   11.7931544118350811
   Au
    12
Direct
  0.1499999999999986  0.1499999999999986  0.0416666666666643
  0.4833333333333343  0.8166666666666629  0.1250000000000000
  0.1499999999999986  0.1499999999999986  0.2083333333333357
  0.4833333333333343  0.8166666666666629  0.2916666666666643
  0.1499999999999986  0.1499999999999986  0.3750000000000000
  0.4833333333333343  0.8166666666666629  0.4583333333333357
  0.1499999999999986  0.1499999999999986  0.5416666666666643
  0.4833333333333343  0.8166666666666629  0.6250000000000000
  0.1499999999999986  0.1499999999999986  0.7083333333333357
  0.4833333333333343  0.8166666666666629  0.7916666666666643
  0.1499999999999986  0.1499999999999986  0.8750000000000000
  0.4833333333333343  0.8166666666666629  0.9583333333333357
 
  0.00000000E+00  0.00000000E+00  0.00000000E+00
  0.00000000E+00  0.00000000E+00  0.00000000E+00
  0.00000000E+00  0.00000000E+00  0.00000000E+00
  0.00000000E+00  0.00000000E+00  0.00000000E+00
  0.00000000E+00  0.00000000E+00  0.00000000E+00
  0.00000000E+00  0.00000000E+00  0.00000000E+00
  0.00000000E+00  0.00000000E+00  0.00000000E+00
  0.00000000E+00  0.00000000E+00  0.00000000E+00
  0.00000000E+00  0.00000000E+00  0.00000000E+00
  0.00000000E+00  0.00000000E+00  0.00000000E+00
  0.00000000E+00  0.00000000E+00  0.00000000E+00
  0.00000000E+00  0.00000000E+00  0.00000000E+00
