Au FCC thin film 1.000
 2.8485000000000000
     0.9999999999999999    0.0000000000000000    0.0000000000000000
    -0.4999999999999998    0.8660254037844387    0.0000000000000000
     0.0000000000000000    0.0000000000000000   16.0027016389323826
 Au 
  12
Direct
  0.1000000000000003  0.0999999999999999  0.2193766842357945
  0.7666666666666666  0.4333333333333330  0.2703991052838319
  0.4333333333333342  0.7666666666666663  0.3214215263318692
  0.1000000000000009  0.1000000000000000  0.3724439473799066
  0.7666666666666674  0.4333333333333331  0.4234663684279440
  0.4333333333333342  0.7666666666666665  0.4744887894759813
  0.1000000000000017  0.0999999999999999  0.5255112105240186
  0.7666666666666688  0.4333333333333330  0.5765336315720558
  0.4333333333333346  0.7666666666666671  0.6275560526200933
  0.1000000000000017  0.1000000000000004  0.6785784736681307
  0.7666666666666689  0.4333333333333341  0.7296008947161681
  0.4333333333333342  0.7666666666666672  0.7806233157642055
