Au FCC thin film 0.957                  
   2.72544000000000     
     0.9999999999999999    0.0000000000000000    0.0000000000000000
    -0.4999999999999998    0.8660254037844387    0.0000000000000000
     0.0000000000000000    0.0000000000000000   17.5920884468865850
   Au
    12
Direct
  0.1000000000000014  0.1000000000000014  0.2067993439327509
  0.7666666666666657  0.4333333333333300  0.2611650512619121
  0.4333333333333371  0.7666666666666657  0.3142175108764249
  0.1000000000000014  0.1000000000000014  0.3671707093270058
  0.7666666666666657  0.4333333333333300  0.4202611435106860
  0.4333333333333371  0.7666666666666657  0.4734094719826061
  0.1000000000000014  0.1000000000000014  0.5265905280173939
  0.7666666666666657  0.4333333333333300  0.5797388564893140
  0.4333333333333371  0.7666666666666657  0.6328292906729942
  0.1000000000000014  0.1000000000000014  0.6857824891235680
  0.7666666666666657  0.4333333333333371  0.7388349487380879
  0.4333333333333371  0.7666666666666657  0.7932006560672491
 
  0.00000000E+00  0.00000000E+00  0.00000000E+00
  0.00000000E+00  0.00000000E+00  0.00000000E+00
  0.00000000E+00  0.00000000E+00  0.00000000E+00
  0.00000000E+00  0.00000000E+00  0.00000000E+00
  0.00000000E+00  0.00000000E+00  0.00000000E+00
  0.00000000E+00  0.00000000E+00  0.00000000E+00
  0.00000000E+00  0.00000000E+00  0.00000000E+00
  0.00000000E+00  0.00000000E+00  0.00000000E+00
  0.00000000E+00  0.00000000E+00  0.00000000E+00
  0.00000000E+00  0.00000000E+00  0.00000000E+00
  0.00000000E+00  0.00000000E+00  0.00000000E+00
  0.00000000E+00  0.00000000E+00  0.00000000E+00
