Au thin film 1.000
 2.8390000000000000
     1.0000000000000000    0.0000000000000000    0.0000000000000000
    -0.5000000000000000    0.8660254037844387    0.0000000000000000
     0.0000000000000000    0.0000000000000000   16.0261964514941724
 Au 
  12
Direct
  0.1500000000000000  0.1500000000000000  0.2197880851707762
  0.4833333333333331  0.8166666666666662  0.2707357060488169
  0.1500000000000000  0.1500000000000000  0.3216833269268576
  0.4833333333333331  0.8166666666666662  0.3726309478048982
  0.1500000000000000  0.1500000000000000  0.4235785686829390
  0.4833333333333331  0.8166666666666662  0.4745261895609796
  0.1500000000000000  0.1500000000000000  0.5254738104390203
  0.4833333333333331  0.8166666666666662  0.5764214313170613
  0.1500000000000000  0.1500000000000000  0.6273690521951019
  0.4833333333333331  0.8166666666666662  0.6783166730731426
  0.1500000000000000  0.1500000000000000  0.7292642939511831
  0.4833333333333331  0.8166666666666662  0.7802119148292238
