Au bulk (0001)-base 0.960
 2.7254399999999999
     1.0000000000000000    0.0000000000000000    0.0000000000000000
    -0.5000000000000000    0.8660254037844387    0.0000000000000000
     0.0000000000000000    0.0000000000000000   11.0744436432254538
 Au 
  12
Direct
  0.1500000000000000  0.1500000000000000  0.0416666666666667
  0.4833333333333330  0.8166666666666662  0.1250000000000000
  0.1500000000000000  0.1500000000000000  0.2083333333333334
  0.4833333333333330  0.8166666666666662  0.2916666666666666
  0.1500000000000000  0.1500000000000000  0.3749999999999999
  0.4833333333333330  0.8166666666666662  0.4583333333333331
  0.1500000000000000  0.1500000000000000  0.5416666666666665
  0.4833333333333330  0.8166666666666662  0.6250000000000002
  0.1500000000000000  0.1500000000000000  0.7083333333333334
  0.4833333333333330  0.8166666666666662  0.7916666666666669
  0.1500000000000000  0.1500000000000000  0.8749999999999998
  0.4833333333333330  0.8166666666666662  0.9583333333333331
