Au HCP thin film 0.940                  
   2.66866000000000     
     1.0000000000000000    0.0000000000000000    0.0000000000000000
    -0.5000000000000000    0.8660254037844387    0.0000000000000000
     0.0000000000000000    0.0000000000000000   18.3078284758195551
   Au
    12
Direct
  0.1499999999999986  0.1499999999999986  0.2024705307471990
  0.4833333333333343  0.8166666666666629  0.2581738764705293
  0.1499999999999986  0.1499999999999986  0.3122322840505589
  0.4833333333333343  0.8166666666666629  0.3658773477623001
  0.1499999999999986  0.1499999999999986  0.4194872682046906
  0.4833333333333343  0.8166666666666629  0.4731570836706354
  0.1499999999999986  0.1499999999999986  0.5268429163293646
  0.4833333333333343  0.8166666666666629  0.5805127317953094
  0.1499999999999986  0.1499999999999986  0.6341226522376999
  0.4833333333333343  0.8166666666666629  0.6877677159494411
  0.1499999999999986  0.1499999999999986  0.7418261235294707
  0.4833333333333343  0.8166666666666629  0.7975294692528010
 
  0.00000000E+00  0.00000000E+00  0.00000000E+00
  0.00000000E+00  0.00000000E+00  0.00000000E+00
  0.00000000E+00  0.00000000E+00  0.00000000E+00
  0.00000000E+00  0.00000000E+00  0.00000000E+00
  0.00000000E+00  0.00000000E+00  0.00000000E+00
  0.00000000E+00  0.00000000E+00  0.00000000E+00
  0.00000000E+00  0.00000000E+00  0.00000000E+00
  0.00000000E+00  0.00000000E+00  0.00000000E+00
  0.00000000E+00  0.00000000E+00  0.00000000E+00
  0.00000000E+00  0.00000000E+00  0.00000000E+00
  0.00000000E+00  0.00000000E+00  0.00000000E+00
  0.00000000E+00  0.00000000E+00  0.00000000E+00
