Au bulk (0001)-base 0.960               
   2.72544000000000     
     1.0000000000000000    0.0000000000000000    0.0000000000000000
    -0.5000000000000000    0.8660254037844387    0.0000000000000000
     0.0000000000000000    0.0000000000000000   11.2099323333257832
   Au
    12
Direct
  0.1499999974448063  0.1500000037270964  0.0416666583211812
  0.4833333364411334  0.8166666632497864  0.1249999870020321
  0.1499999965720770  0.1500000028248105  0.2083333211357478
  0.4833333356919620  0.8166666633417720  0.2916666380546756
  0.1499999964662222  0.1500000024533385  0.3749999791220550
  0.4833333368314641  0.8166666638601631  0.4583333243465231
  0.1499999971911780  0.1500000031207102  0.5416666533758108
  0.4833333365448461  0.8166666636545953  0.6250000081189858
  0.1499999966298928  0.1500000027386428  0.7083333623679123
  0.4833333366929249  0.8166666638801932  0.7916666884994906
  0.1499999969336008  0.1500000031768518  0.8750000256668303
  0.4833333365598895  0.8166666639720086  0.9583333539887552
 
  0.00000000E+00  0.00000000E+00  0.00000000E+00
  0.00000000E+00  0.00000000E+00  0.00000000E+00
  0.00000000E+00  0.00000000E+00  0.00000000E+00
  0.00000000E+00  0.00000000E+00  0.00000000E+00
  0.00000000E+00  0.00000000E+00  0.00000000E+00
  0.00000000E+00  0.00000000E+00  0.00000000E+00
  0.00000000E+00  0.00000000E+00  0.00000000E+00
  0.00000000E+00  0.00000000E+00  0.00000000E+00
  0.00000000E+00  0.00000000E+00  0.00000000E+00
  0.00000000E+00  0.00000000E+00  0.00000000E+00
  0.00000000E+00  0.00000000E+00  0.00000000E+00
  0.00000000E+00  0.00000000E+00  0.00000000E+00
