Au thin film 0.897
 2.5550999999999999
     0.9999999999999998    0.0000000000000000    0.0000000000000000
    -0.4999999999999998    0.8660254037844388    0.0000000000000000
     0.0000000000000000    0.0000000000000000   20.2718266706512686
 Au 
  12
Direct
  0.1000000000000002  0.0999999999999999  0.1930630726448947
  0.7666666666666666  0.4333333333333331  0.2488697867094593
  0.4333333333333342  0.7666666666666663  0.3046765007740239
  0.1000000000000009  0.1000000000000000  0.3604832148385886
  0.7666666666666673  0.4333333333333332  0.4162899289031533
  0.4333333333333343  0.7666666666666666  0.4720966429677178
  0.1000000000000017  0.0999999999999999  0.5279033570322823
  0.7666666666666686  0.4333333333333331  0.5837100710968467
  0.4333333333333346  0.7666666666666672  0.6395167851614114
  0.1000000000000017  0.1000000000000004  0.6953234992259761
  0.7666666666666690  0.4333333333333342  0.7511302132905407
  0.4333333333333343  0.7666666666666673  0.8069369273551054
