Au thin film 0.998
 2.8428030000000000
     0.9999999999999999    0.0000000000000000    0.0000000000000000
    -0.4999999999999998    0.8660254037844387    0.0000000000000000
     0.0000000000000000    0.0000000000000000   16.0708773087865033
 Au 
  12
Direct
  0.1000000000000003  0.0999999999999999  0.2188838149059194
  0.7666666666666665  0.4333333333333331  0.2699958485593886
  0.4333333333333342  0.7666666666666664  0.3211078822128578
  0.1000000000000009  0.1000000000000000  0.3722199158663270
  0.7666666666666674  0.4333333333333332  0.4233319495197962
  0.4333333333333343  0.7666666666666666  0.4744439831732654
  0.1000000000000017  0.0999999999999999  0.5255560168267345
  0.7666666666666687  0.4333333333333331  0.5766680504802035
  0.4333333333333346  0.7666666666666672  0.6277800841336728
  0.1000000000000017  0.1000000000000004  0.6788921177871421
  0.7666666666666690  0.4333333333333342  0.7300041514406114
  0.4333333333333342  0.7666666666666673  0.7811161850940807
