Au bulk (111)-base 0.997                
   2.83900000000000     
     0.9999999999999999    0.0000000000000000    0.0000000000000000
    -0.4999999999999998    0.8660254037844387    0.0000000000000000
     0.0000000000000000    0.0000000000000000   10.1849823866303346
   Au
    12
Direct
  0.0999999994089965  0.0999999984720431  0.0416666880594750
  0.7666666716177662  0.4333333375648922  0.1250000067489609
  0.4333333284217360  0.7666666635508946  0.2083333263376262
  0.1000000006348123  0.0999999995161658  0.2916666469877167
  0.7666666713183820  0.4333333377248265  0.3749999704147552
  0.4333333295347628  0.7666666628358515  0.4583332989823672
  0.0999999994569175  0.0999999991735551  0.5416666365082482
  0.7666666706390087  0.4333333379159465  0.6249999856552150
  0.4333333287966616  0.7666666631657620  0.7083333414853827
  0.1000000006338783  0.0999999997539263  0.7916666943936987
  0.7666666705811469  0.4333333366562279  0.8750000372073337
  0.4333333289559480  0.7666666636699041  0.9583333672192205
 
  0.00000000E+00  0.00000000E+00  0.00000000E+00
  0.00000000E+00  0.00000000E+00  0.00000000E+00
  0.00000000E+00  0.00000000E+00  0.00000000E+00
  0.00000000E+00  0.00000000E+00  0.00000000E+00
  0.00000000E+00  0.00000000E+00  0.00000000E+00
  0.00000000E+00  0.00000000E+00  0.00000000E+00
  0.00000000E+00  0.00000000E+00  0.00000000E+00
  0.00000000E+00  0.00000000E+00  0.00000000E+00
  0.00000000E+00  0.00000000E+00  0.00000000E+00
  0.00000000E+00  0.00000000E+00  0.00000000E+00
  0.00000000E+00  0.00000000E+00  0.00000000E+00
  0.00000000E+00  0.00000000E+00  0.00000000E+00
