Au thin film 1.001
 2.8513484999999998
     0.9999999999999999    0.0000000000000000    0.0000000000000000
    -0.4999999999999998    0.8660254037844386    0.0000000000000000
     0.0000000000000000    0.0000000000000000   15.9687968258323156
 Au 
  12
Direct
  0.1000000000000003  0.0999999999999999  0.2196228400989160
  0.7666666666666666  0.4333333333333331  0.2706005055354768
  0.4333333333333343  0.7666666666666664  0.3215781709720375
  0.1000000000000009  0.1000000000000000  0.3725558364085983
  0.7666666666666674  0.4333333333333332  0.4235335018451591
  0.4333333333333344  0.7666666666666667  0.4745111672817197
  0.1000000000000018  0.0999999999999999  0.5254888327182804
  0.7666666666666688  0.4333333333333331  0.5764664981548410
  0.4333333333333347  0.7666666666666673  0.6274441635914019
  0.1000000000000018  0.1000000000000005  0.6784218290279627
  0.7666666666666692  0.4333333333333342  0.7293994944645235
  0.4333333333333342  0.7666666666666673  0.7803771599010841
