Au FCC thin film 0.997                  
   2.83900000000000     
     0.9999999999999999    0.0000000000000000    0.0000000000000000
    -0.4999999999999998    0.8660254037844387    0.0000000000000000
     0.0000000000000000    0.0000000000000000   16.1166611145497214
   Au
    12
Direct
  0.1000000000000014  0.1000000000000014  0.2100540607703181
  0.7666666666666657  0.4333333333333300  0.2632332583135764
  0.4333333333333371  0.7666666666666657  0.3156429947183383
  0.1000000000000014  0.1000000000000014  0.3682582513979611
  0.7666666666666657  0.4333333333333300  0.4209703785322887
  0.4333333333333371  0.7666666666666657  0.4736516614077004
  0.1000000000000014  0.1000000000000014  0.5263483385922996
  0.7666666666666657  0.4333333333333300  0.5790296214677113
  0.4333333333333371  0.7666666666666657  0.6317417486020389
  0.1000000000000014  0.1000000000000014  0.6843570052816617
  0.7666666666666657  0.4333333333333371  0.7367667416864236
  0.4333333333333371  0.7666666666666657  0.7899459392296819
 
  0.00000000E+00  0.00000000E+00  0.00000000E+00
  0.00000000E+00  0.00000000E+00  0.00000000E+00
  0.00000000E+00  0.00000000E+00  0.00000000E+00
  0.00000000E+00  0.00000000E+00  0.00000000E+00
  0.00000000E+00  0.00000000E+00  0.00000000E+00
  0.00000000E+00  0.00000000E+00  0.00000000E+00
  0.00000000E+00  0.00000000E+00  0.00000000E+00
  0.00000000E+00  0.00000000E+00  0.00000000E+00
  0.00000000E+00  0.00000000E+00  0.00000000E+00
  0.00000000E+00  0.00000000E+00  0.00000000E+00
  0.00000000E+00  0.00000000E+00  0.00000000E+00
  0.00000000E+00  0.00000000E+00  0.00000000E+00
