Au FCC thin film 0.957
 2.7254399999999999
     0.9999999999999999    0.0000000000000000    0.0000000000000000
    -0.4999999999999998    0.8660254037844387    0.0000000000000000
     0.0000000000000000    0.0000000000000000   17.5920884468865850
 Au 
  12
Direct
  0.1000000000000003  0.0999999999999999  0.2085671826097187
  0.7666666666666666  0.4333333333333331  0.2615549675897699
  0.4333333333333342  0.7666666666666664  0.3145427525698210
  0.1000000000000009  0.1000000000000000  0.3675305375498721
  0.7666666666666674  0.4333333333333332  0.4205183225299233
  0.4333333333333343  0.7666666666666666  0.4735061075099745
  0.1000000000000017  0.0999999999999999  0.5264938924900255
  0.7666666666666687  0.4333333333333331  0.5794816774700765
  0.4333333333333346  0.7666666666666671  0.6324694624501277
  0.1000000000000017  0.1000000000000004  0.6854572474301789
  0.7666666666666690  0.4333333333333342  0.7384450324102301
  0.4333333333333342  0.7666666666666672  0.7914328173902813
