 H  O Si 
 1.0000000000000000
     3.6603421357432016    3.6603421357432011    0.0000000000000005
    -3.6603421357432002    3.6603421357432011    0.0000000000000000
     0.0000000000000000    0.0000000000000000   50.0000000000000000
 H   O   Si 
   4  12   5
Cartesian
  3.1892626076699213  3.9945378775334262 35.9784984992395565
 -0.4710795280732789  2.0084232250854002 14.0215015007608059
 -2.4571941805213049  3.9945378775334253 14.0215015007608059
  1.2031479552218960  2.0084232250853997 35.9784984992392012
 -0.5482195569852921  3.9173978486214125 26.8282833474064120
 -2.3618055118913746  3.8991492089034954 15.8457138785319120
  3.1169117418495191  3.9221870117130240 19.5399325781746533
  1.2985366238518257  2.1038118937153301 34.1542861214681253
  1.2802879841339105  5.7459053897406145 26.8282833474064120
 -0.5664681967032104  2.1038118937153305 15.8457138785319120
 -0.5482195569852920  5.7459053897406145 23.1717166525936094
  1.2754988210422979  2.0807740909058019 19.5399325781746533
  1.2802879841339099  3.9173978486214125 23.1717166525936094
 -0.5434303938936824  2.0807740909058023 30.4600674218253715
  3.0938739390399914  3.8991492089034963 34.1542861214681253
 -2.3848433147009023  3.9221870117130226 30.4600674218253715
  0.3660342135743078  1.1713094834378119 32.3050880118622885
  0.3660342135743091  4.8316516191810130 24.9999999999999964
  0.3660342135743078  1.1713094834378119 17.6949119881377150
 -1.4641368542972923  3.0014805513094123 28.6479068553948721
  2.1962052814459088  3.0014805513094123 21.3520931446051385
