Si5 H4 Au24 O12
1.0
  -3.6603421357432016   -3.6603421357432011    0.0000000000000000
   3.6603421357432002   -3.6603421357432011    0.0000000000000000
   0.0000000000000000    0.0000000000000000   52.4486493232377597
H O Si Au
4 12 5 24
direct
   0.7286982228992152    0.1666666666666664    0.4186379874753142 H
   0.5000000000000000    0.9379684437674514    0.0000000000000000 H
   0.5000000000000001    0.3953648895658817    0.0000000000000000 H
   0.2713017771007850    0.1666666666666665    0.4186379874753074 H
   0.2497727634889434    0.6666666666666664    0.2441775338716199 O
   0.5000000000000000    0.4214249312484502    0.0347809219362085 O
   0.7484643712911636    0.1666666666666663    0.1052158854159256 O
   0.2452417354182164    0.1666666666666664    0.3838570655390993 O
   0.7502272365110562    0.6666666666666667    0.2441775338716199 O
   0.5000000000000001    0.9119084020848827    0.0347809219362085 O
   0.0000000000000000    0.4168939031777230    0.1744604536036876 O
   0.2515356287088364    0.1666666666666664    0.1052158854159256 O
   0.0000000000000001    0.9164394301556099    0.1744604536036876 O
   0.5000000000000001    0.9182022953755026    0.3134221020593819 O
   0.7547582645817839    0.1666666666666662    0.3838570655390993 O
   0.5000000000000001    0.4151310379578304    0.3134221020593819 O
   0.5000000000000001    0.1666666666666665    0.3485997589455711 Si
   0.0000000000000001    0.6666666666666665    0.2093189937376536 Si
   0.5000000000000001    0.1666666666666665    0.0700382285297360 Si
   0.5000000000000001    0.6666666666666666    0.2788709631871059 Si
   0.0000000000000001    0.1666666666666664    0.1397670242882015 Si
   0.1666666666666666    0.1666666666666669    0.4853699251927132 Au
   0.3333333333333334    0.3333333333333331    0.5310971363964000 Au
   0.5000000000000001    0.0000000000000000    0.5768243476000869 Au
   0.1666666666666664    0.1666666666666668    0.6225515588037736 Au
   0.3333333333333334    0.3333333333333332    0.6682787700074605 Au
   0.5000000000000001    0.9999999999999996    0.7140059812111474 Au
   0.6666666666666665    0.6666666666666669    0.4853699251927132 Au
   0.6666666666666666    0.1666666666666669    0.4853699251927132 Au
   0.1666666666666666    0.6666666666666667    0.4853699251927132 Au
   0.8333333333333336    0.8333333333333333    0.5310971363964000 Au
   0.8333333333333335    0.3333333333333333    0.5310971363964000 Au
   0.3333333333333335    0.8333333333333333    0.5310971363964000 Au
   0.0000000000000000    0.5000000000000000    0.5768243476000869 Au
   0.0000000000000000    0.0000000000000000    0.5768243476000869 Au
   0.5000000000000001    0.5000000000000001    0.5768243476000869 Au
   0.6666666666666664    0.6666666666666667    0.6225515588037736 Au
   0.6666666666666665    0.1666666666666668    0.6225515588037736 Au
   0.1666666666666664    0.6666666666666667    0.6225515588037736 Au
   0.8333333333333334    0.8333333333333333    0.6682787700074605 Au
   0.8333333333333333    0.3333333333333332    0.6682787700074605 Au
   0.3333333333333333    0.8333333333333330    0.6682787700074605 Au
   0.0000000000000000    0.4999999999999997    0.7140059812111474 Au
   0.0000000000000000    0.9999999999999996    0.7140059812111474 Au
   0.5000000000000001    0.4999999999999996    0.7140059812111474 Au
