POSCAR file written by Ovito 3.10.4
1
14.79746536 0.0 0.0
2.4e-15 14.79746536 0.0
1.0e-15 1.0e-15 16.79746536
Si O 
39 88 
Cartesian
4.8188485509 1.6130516208 5.0160103764
5.8786961121 1.6008314381 7.8934472335
3.3780640585 1.8307360005 9.9278003182
3.9967677529 14.6467507605 12.4447885358
2.2439788284 3.5170379636 5.5959250474
2.500060091 4.93924128 10.5522727431
1.2034697289 5.0382212867 7.9112059534
5.8209472125 7.2482319208 5.7891441765
0.2265739258 8.396553625 5.1483179784
2.678527472 6.5144301016 5.796152885
1.7297235114 7.8896606336 10.2338114977
7.2977126778 6.7110490635 8.3496792307
6.0863125173 7.6219982215 11.2972496899
0.2846798417 11.4747803314 4.9858661166
1.3342833022 11.9020113036 7.9140085327
2.9252783625 10.7472980314 10.1491500946
5.935541166 10.7947274058 10.9970468104
1.0859538331 14.637303414 9.5508338976
1.7932502366 12.7528817483 11.9664454599
12.4645238136 0.5817819719 6.5873422409
14.7095311996 1.5427591712 4.5000206434
12.9331566773 0.860298916 9.6749826308
10.0378259538 1.8339470482 7.4956980858
7.8174084029 4.0044347828 7.2573270922
11.6873174428 3.4892271287 9.4964351373
7.6735030879 5.3968947726 4.3550474874
12.9115545654 6.1225856547 4.2238571191
12.8686678016 5.5288335593 7.3038483331
11.7961193026 5.9082364991 11.3739342752
12.0892479803 7.9611644268 9.0951982766
8.0870408093 9.1143347368 6.62697674
10.0925393269 10.4454833885 4.5632980779
10.4150486294 10.1795267028 10.3595189805
14.6345277539 9.2001755386 8.2042610345
12.134943277 12.6929874369 5.373530082
7.9082298575 11.3526571883 8.814181829
8.2772036839 14.5566313003 8.9361727615
9.254180806 14.5837284999 12.0319774259
11.7340643096 13.0446125831 11.0414079092
5.4166091267 1.010714272 6.4253509044
4.2026707363 0.4126378956 4.0938746608
0.7176651012 0.292578645 3.8228093447
6.862265824 0.515677356 8.6205267577
2.1282473403 1.0554106506 9.1610711049
4.6125706391 1.7727624229 8.8841134994
3.6797579653 0.9603150908 11.2836166756
3.6610482319 2.7137868936 5.4083585677
1.7477631496 3.6625514322 7.1671378945
1.0197046703 2.6908064306 4.8853348871
6.0595092717 2.2593925935 4.1669135026
3.2107686936 3.4406814635 10.3375742195
6.5161128515 3.109555911 7.6989172582
2.4890031226 5.056182673 5.0032637612
2.2569324672 6.2161207278 7.3743360152
6.4328660882 6.4754915217 4.4574540757
1.162001857 4.7025574596 9.5388211535
2.9181236415 5.2272886442 12.1688137148
1.6766825094 7.6387260053 5.1484556123
4.1794797446 7.1843250588 5.6381271253
6.0680903578 6.5452671883 7.2627768574
6.6631738658 7.1043930398 9.8285590383
2.6582558739 6.5440013396 10.0620574611
0.767004455 8.0792631713 8.9344150027
6.8788759963 6.7496015201 12.468764921
4.4812782196 7.3918965016 11.6456067228
0.7505103902 7.8792464144 11.5855275503
0.3955843191 9.9001616009 4.473584454
6.6622308311 8.7011728823 5.8518447831
2.7760186559 9.1341490994 10.1496197241
6.3368660943 9.2472032488 11.3885637258
1.2900831977 11.8261341949 6.2642972513
0.7500879763 12.3939440935 3.7228993277
6.4358168224 11.1463810318 9.481014538
2.7595021118 11.4250887042 8.6367106651
4.3392646383 11.0787649333 10.8711924473
0.2463651212 10.7702024973 8.4071155218
6.5625466153 11.8044456005 12.1294199259
1.7574198364 11.3458309586 11.1363596734
0.9868728309 13.4499798389 8.3936454033
1.4986340676 13.9881933492 10.9683721294
3.2828782715 13.1486484098 12.5154586639
5.6006187457 14.3420208056 12.3058782096
13.7957630626 0.9539514326 5.7182528082
11.1126277624 1.4921927732 6.2826297817
12.8321872705 1.0515941776 8.0823861819
9.3747210822 0.3941253022 7.9027145825
14.4836029775 0.5324601362 9.9588738354
8.6932599569 0.0194772161 10.5049842837
9.6609717807 1.2261163457 12.7456445694
13.6257060369 2.2339723733 3.4952106501
7.4602260223 4.2555381204 3.2213676837
9.0173202943 2.9530858399 6.9138652806
10.5176859917 2.5134322966 8.9089896095
12.6169396519 2.3711342241 10.3178372211
13.5582668748 4.9462194692 3.2672158941
7.6647834397 4.7329465042 5.8250858951
12.5415124014 5.4436731837 5.6876815958
9.0958497106 6.0990750437 3.9422339257
11.1106506027 4.6720365503 10.5061553744
8.0550875181 5.2213999038 8.3781719081
14.5065836349 5.5008467813 7.4281047588
12.348567307 4.2360816836 8.1752139282
13.0456544665 5.1793624166 12.1452514274
11.5741594897 6.6713014156 3.4408383803
13.9281872276 7.4073814186 4.4136576036
12.4563492225 7.052311482 10.4025687136
12.1044900087 6.9066931058 7.8271983602
8.3197937185 7.8881171395 7.7430127682
10.7245805037 6.7527330431 12.3233343794
11.2802997333 10.0219857939 3.4436860842
9.4180632524 9.3396535978 5.6267034474
14.5121683922 8.7084334077 6.6643062375
10.7660152845 8.9070536034 9.3463389158
13.1788659231 9.1421774055 8.8981507682
7.9155190656 10.5676116905 7.3772222075
10.3393743277 9.4897389816 11.8512121125
8.805602714 10.8703339285 3.6192187632
10.8213464033 11.6775567766 5.413852771
13.5231433124 11.8136290251 5.4049853056
11.3390334839 11.5735736868 10.3616013741
8.9400083954 10.6719362654 9.8788980665
12.1221934073 13.761340376 6.6275672298
12.1064520759 13.7346710235 4.102087785
8.1834250993 12.9527712332 8.6145551073
11.9990994545 14.3514131057 10.0605830642
10.5368086982 13.5501965701 12.0487439183
13.1501969502 12.8123961599 11.8149152887
