 H  O Si 
 1.0000000000000000
    14.7974653600000003    0.0000000000000000    0.0000000000000000
     0.0000000000000024   14.7974653600000003    0.0000000000000000
     0.0000000000000016    0.0000000000000016   27.1522850810126855
 H   O   Si 
  26  91  39
Selective dynamics
Cartesian
 11.8826526161948003 13.7587883323647748  8.1313123683341608   F   F   F
  3.5061567490854193  0.4926527559060198 19.6522850810126855   T   T   T
  0.6801655977662214 12.6071895128817832 18.9396809621271061   T   T   T
  8.1143055292956401 13.8312755329028114 18.7254240314668685   T   T   T
  3.2607973534994463  5.9246144234565543 17.3180545730406621   T   T   T
  6.6228015075217206  6.5069026547165425 18.0365293451799502   T   T   T
  4.0423746425359974  7.0069183521385110 17.0564510770252369   T   T   T
  0.7468073064729001  7.7694840158328882 17.2273225703662618   T   T   T
  6.5818950353073582 12.5128538263259461 17.3597338343047412   T   T   T
  6.1009311005049476 13.7816414288968083 17.4479629761583297   T   T   T
  9.4961360830187722  1.6660576744678226 18.2407862041910960   T   T   T
 13.3814537292275588  5.1207750950496873 17.7043739197984706   T   T   T
 10.6806799786332629  7.5264819482404546 17.4518852681810230   T   T   T
  8.6596671521029833 10.8134816230238293  7.6210879616194038   F   F   F
 13.4968255248879245 12.6837551776742323 17.3552939200655203   T   T   T
  4.1230761531283102  0.1407442438926105  8.1361063327896996   F   F   F
  0.9046878543587585 14.4328157966255084  8.1888833950876414   F   F   F
  6.5786035058123291  2.4738271074348650  8.3918987918349259   F   F   F
  0.9208992918971592 13.0847658408806033  8.1389283865521502   F   F   F
 13.6155068955400260  2.8716986495940033  7.8047382082716723   F   F   F
  7.2789618811023784  3.4718998708780369  7.9191258823709081   F   F   F
 13.5817873145005219  4.2278221975536034  7.6907408302763809   F   F   F
  9.6309391069877854  6.1833340231885234  8.1371337717844892   F   F   F
 10.8700939965069203  6.4694472091508644  7.8864359991096720   F   F   F
 11.3826282482606480 10.3600183182678105  7.5000000000000000   F   F   F
 10.4880768906462656  8.8949849174501026 17.2158241347117666   T   T   T
 12.6169396518999992  2.3711342241000004 15.1330525037525003   T   T   T
 13.5582668747999993  4.9462194692000008  8.0824311767525003   F   F   F
  7.6647834396999999  4.7329465042000001 10.6403011777525016   F   F   F
 12.5415124014000003  5.4436731836999996 10.5028968784525016   F   F   F
 14.5065836349000001  5.5008467812999999 12.2433200414525007   F   F   F
 11.1106506027000016  4.6720365502999996 15.3213706570525012   T   T   T
  8.0550875181000006  5.2213999038000010 13.1933871907525013   T   T   T
 10.5176859917000005  2.5134322966000004 13.7242048921525015   T   T   T
 12.3485673070000015  4.2360816836000001 12.9904292108525006   F   F   F
  9.0958497105999996  6.0990750437000001  8.7574492083525008   F   F   F
  9.0173202942999993  2.9530858399000004 11.7290805632525021   F   F   F
 14.4836029775000004  0.5324601362000003 14.7740891180525011   T   T   T
 13.6257060369000005  2.2339723733000003  8.3104259327525014   F   F   F
  9.6609717807000024  1.2261163457000002 17.5608598520525021   T   T   T
  8.6932599569000004  0.0194772161000003 15.3201995663525032   T   T   T
 13.0456544665000003  5.1793624166000001 16.9604667100525006   T   T   T
  9.3747210822000007  0.3941253022000003 12.7179298651525006   F   F   F
 12.8321872705000004  1.0515941776000004 12.8976014645525012   F   F   F
 11.1126277624000007  1.4921927732000002 11.0978450643525015   F   F   F
 13.7957630626000007  0.9539514326000004 10.5334680908525016   F   F   F
  5.6006187457000003 14.3420208056000007 17.1210934922524984   T   T   T
  3.2828782715000004 13.1486484097999998 17.3306739465525013   T   T   T
  1.4986340676000005 13.9881933491999995 15.7835874120525013   T   T   T
  7.4602260223000005  4.2555381203999998  8.0365829663525012   F   F   F
 11.5741594896999995  6.6713014156000003  8.2560536629525014   F   F   F
 11.2802997332999997 10.0219857939000008  8.2589013668525002   F   F   F
 12.4563492225000001  7.0523114820000004 15.2177839962525017   T   T   T
  8.1143055292956401 13.8312755329028114 17.7454240314668681   T   T   T
  0.6801655977662214 12.6071895128817832 17.9596809621271092   T   T   T
  3.5061567490854193  0.4926527559060197 18.6722850810126850   T   T   T
 13.1501969502000016 12.8123961599000005 16.6301305713525025   T   T   T
 10.5368086981999998 13.5501965701000007 16.8639592009525003   T   T   T
 11.9990994544999996 14.3514131057000007 14.8757983468525001   T   T   T
  8.1834250993000008 12.9527712332000000 13.4297703899525018   T   T   T
 12.1064520759000018 13.7346710235000007  8.9173030676525009   F   F   F
 12.1221934072999993 13.7613403760000015 11.4427825124525011   F   F   F
  8.9400083953999996 10.6719362654000012 14.6941133491525004   T   T   T
 11.3390334838999998 11.5735736867999996 15.1768166567525000   T   T   T
 13.5231433124000002 11.8136290251000009 10.2202005882525029   F   F   F
 10.8213464033000015 11.6775567765999995 10.2290680536525009   F   F   F
  0.9868728309000004 13.4499798388999992 13.2088606859525015   T   T   T
 10.3393743276999999  9.4897389816000004 16.6664273951525033   T   T   T
  7.9155190655999998 10.5676116905000015 12.1924374901524999   F   F   F
 13.1788659231000000  9.1421774055000000 13.7133660508525015   T   T   T
 10.7660152844999999  8.9070536033999996 14.1615541984525013   T   T   T
 14.5121683921999995  8.7084334076999994 11.4795215201525007   F   F   F
  9.4180632523999996  9.3396535977999999 10.4419187300524996   F   F   F
 10.7245805037000004  6.7527330431000010 17.1385496620525011   T   T   T
  8.3197937184999997  7.8881171395000003 12.5582280508525024   F   F   F
 12.1044900087000009  6.9066931057999996 12.6424136428525014   F   F   F
 13.9281872276000005  7.4073814186000009  9.2288728862524998   F   F   F
  8.8056027140000026 10.8703339285000009  8.4344340458525018   F   F   F
  1.7574198364000004 11.3458309586000023 15.9515749560525020   T   T   T
  0.2463651212000003 10.7702024972999997 13.2223308044525005   T   T   T
  6.4328660882000008  6.4754915217000013  9.2726693583525019   F   F   F
  2.2569324672000004  6.2161207278000008 12.1895512978525016   F   F   F
  2.4890031226000007  5.0561826730000003  9.8184790438525020   F   F   F
  6.5161128515000000  3.1095559110000006 12.5141325408525006   F   F   F
  3.2107686936000004  3.4406814635000007 15.1527895021525012   T   T   T
  6.0595092716999996  2.2593925935000003  8.9821287852525007   F   F   F
  1.7477631496000001  3.6625514322000003 11.9823531771525005   F   F   F
  1.1620018570000001  4.7025574596000004 14.3540364361525015   T   T   T
  3.6610482319000006  2.7137868936000009 10.2235738503525013   F   F   F
  4.6125706391000003  1.7727624229000003 13.6993287820525023   T   T   T
  2.1282473403000006  1.0554106506000005 13.9762863875525003   T   T   T
  6.8622658239999996  0.5156773560000003 13.4357420403525012   T   T   T
  0.7176651012000005  0.2925786450000004  8.6380246273525003   F   F   F
  4.2026707363000009  0.4126378956000003  8.9090899434524999   F   F   F
  5.4166091267000009  1.0107142720000002 11.2405661870525009   F   F   F
  6.5625466152999996 11.8044456004999994 16.9446352085525014   T   T   T
  3.6797579653000008  0.9603150908000004 16.0988319582525001   T   T   T
  2.9181236415000003  5.2272886441999997 16.9840289974525014   T   T   T
  1.0197046703000001  2.6908064306000004  9.7005501697524998   F   F   F
  4.1794797446000000  7.1843250588000007 10.4533424079525012   F   F   F
  4.3392646383000004 11.0787649333000005 15.6864077299525011   T   T   T
  1.6766825094000002  7.6387260052999997  9.9636708949525019   F   F   F
  2.7595021118000003 11.4250887042000002 13.4519259477525015   T   T   T
  6.4358168223999996 11.1463810318000007 14.2962298206525009   T   T   T
  0.7500879763000003 12.3939440935000018  8.5381146103525012   F   F   F
  1.2900831977000005 11.8261341949000016 11.0795125339525011   F   F   F
  2.7760186559000006  9.1341490994000001 14.9648350067525016   T   T   T
  6.6622308310999996  8.7011728822999999 10.6670600657525014   F   F   F
  6.3368660943000004  9.2472032488000000 16.2037790084525000   T   T   T
  0.7505103902000004  7.8792464144000007 16.4007428329525027   T   T   T
  4.4812782196000001  7.3918965016000007 16.4608220054525027   T   T   T
  6.8788759962999997  6.7496015200999997 17.2839802036525008   T   T   T
  0.7670044550000005  8.0792631712999992 13.7496302853525005   T   T   T
  2.6582558739000004  6.5440013396000003 14.8772727437525010   T   T   T
  6.6631738658000010  7.1043930397999997 14.6437743209525006   T   T   T
  6.0680903578000001  6.5452671883000004 12.0779921400525012   F   F   F
  0.3955843191000003  9.9001616009000006  9.2887997366525017   F   F   F
  5.9355411660000001 10.7947274057999998 15.8122620930525013   T   T   T
  1.7297235114000005  7.8896606336000001 15.0490267803525004   T   T   T
  2.9252783625000003 10.7472980313999997 14.9643653772525003   T   T   T
  1.3342833022000002 11.9020113036000019 12.7292238153525012   F   F   F
  0.2846798417000003 11.4747803313999999  9.8010813992524994   F   F   F
  6.0863125173000006  7.6219982215000011 16.1124649725525018   T   T   T
  7.2977126777999999  6.7110490635000009 13.1648945133525004   T   T   T
  2.6785274720000007  6.5144301016000004 10.6113681676525005   F   F   F
  5.8786961121000010  1.6008314381000002 12.7086625161525006   F   F   F
  5.8209472125000001  7.2482319208000003 10.6043594591525014   F   F   F
  1.2034697289000003  5.0382212866999998 12.7264212360525004   F   F   F
  2.5000600910000004  4.9392412800000001 15.3674880257525004   T   T   T
  2.2439788284000004  3.5170379636000004 10.4111403300525005   F   F   F
  3.9967677529000003 14.6467507605000016 17.2600038184525033   T   T   T
  3.3780640585000006  1.8307360005000004 14.7430156008525000   T   T   T
  1.0859538331000005 14.6373034139999998 14.3660491802525012   T   T   T
  0.2265739258000003  8.3965536249999992  9.9635332610525005   F   F   F
  1.7932502366000005 12.7528817483000001 16.7816607425525000   T   T   T
  9.2541808060000008 14.5837284999000012 16.8471927085525017   T   T   T
 14.7095311996000007  1.5427591712000004  9.3152359260525017   F   F   F
 11.7340643096000026 13.0446125830999993 15.8566231918525009   T   T   T
  8.2772036839000016 14.5566313002999994 13.7513880441525007   T   T   T
  7.9082298575000012 11.3526571883000003 13.6293971116525032   T   T   T
 12.1349432769999996 12.6929874369000011 10.1887453646525010   F   F   F
 14.6345277539000005  9.2001755385999999 13.0194763171525008   F   F   F
 10.4150486293999993 10.1795267028000005 15.1747342631525033   T   T   T
 10.0925393269000008 10.4454833884999996  9.3785133605524997   F   F   F
  8.0870408092999995  9.1143347368000001 11.4421920226525007   F   F   F
 12.0892479802999997  7.9611644268000008 13.9104135592525004   T   T   T
 11.7961193026000011  5.9082364991000009 16.1891495578525024   T   T   T
 12.8686678015999991  5.5288335592999998 12.1190636157525020   F   F   F
 12.9115545654000012  6.1225856546999999  9.0390724017525024   F   F   F
  7.6735030879000012  5.3968947726000005  9.1702627700525010   F   F   F
 11.6873174427999995  3.4892271287000005 14.3116504199525032   T   T   T
  7.8174084029000008  4.0044347828000006 12.0725423748524996   F   F   F
 10.0378259538000005  1.8339470482000002 12.3109133684524998   F   F   F
 12.9331566773000013  0.8602989160000003 14.4901979134525014   T   T   T
 12.4645238135999996  0.5817819719000004 11.4025575235525025   F   F   F
  4.8188485509000003  1.6130516208000003  9.8312256590524996   F   F   F
