POSCAR file written by OVITO Basic 3.8.5
1
14.79746536 0.0 0.0
2.4e-15 14.79746536 0.0
2.5e-15 2.5e-15 42.152285081
Si O H 
39 91 26 
Cartesian
4.8188485509 1.6130516208 17.3312256591
5.8786961121 1.6008314381 20.2086625162
3.3780640585 1.8307360005 22.2430156009
3.9967677529 14.6467507605 24.7600038185
2.2439788284 3.5170379636 17.9111403301
2.500060091 4.93924128 22.8674880258
1.2034697289 5.0382212867 20.2264212361
5.8209472125 7.2482319208 18.1043594592
0.2265739258 8.396553625 17.4635332611
2.678527472 6.5144301016 18.1113681677
1.7297235114 7.8896606336 22.5490267804
7.2977126778 6.7110490635 20.6648945134
6.0863125173 7.6219982215 23.6124649726
0.2846798417 11.4747803314 17.3010813993
1.3342833022 11.9020113036 20.2292238154
2.9252783625 10.7472980314 22.4643653773
5.935541166 10.7947274058 23.3122620931
1.0859538331 14.637303414 21.8660491803
1.7932502366 12.7528817483 24.2816607426
12.4645238136 0.5817819719 18.9025575236
14.7095311996 1.5427591712 16.8152359261
12.9331566773 0.860298916 21.9901979135
10.0378259538 1.8339470482 19.8109133685
7.8174084029 4.0044347828 19.5725423749
11.6873174428 3.4892271287 21.81165042
7.6735030879 5.3968947726 16.6702627701
12.9115545654 6.1225856547 16.5390724018
12.8686678016 5.5288335593 19.6190636158
11.7961193026 5.9082364991 23.6891495579
12.0892479803 7.9611644268 21.4104135593
8.0870408093 9.1143347368 18.9421920227
10.0925393269 10.4454833885 16.8785133606
10.4150486294 10.1795267028 22.6747342632
14.6345277539 9.2001755386 20.5194763172
12.134943277 12.6929874369 17.6887453647
7.9082298575 11.3526571883 21.1293971117
8.2772036839 14.5566313003 21.2513880442
9.254180806 14.5837284999 24.3471927086
11.7340643096 13.0446125831 23.3566231919
5.4166091267 1.010714272 18.7405661871
4.2026707363 0.4126378956 16.4090899435
0.7176651012 0.292578645 16.1380246274
6.862265824 0.515677356 20.9357420404
2.1282473403 1.0554106506 21.4762863876
4.6125706391 1.7727624229 21.1993287821
3.6797579653 0.9603150908 23.5988319583
3.6610482319 2.7137868936 17.7235738504
1.7477631496 3.6625514322 19.4823531772
1.0197046703 2.6908064306 17.2005501698
6.0595092717 2.2593925935 16.4821287853
3.2107686936 3.4406814635 22.6527895022
6.5161128515 3.109555911 20.0141325409
2.4890031226 5.056182673 17.3184790439
2.2569324672 6.2161207278 19.6895512979
6.4328660882 6.4754915217 16.7726693584
1.162001857 4.7025574596 21.8540364362
2.9181236415 5.2272886442 24.4840289975
1.6766825094 7.6387260053 17.463670895
4.1794797446 7.1843250588 17.953342408
6.0680903578 6.5452671883 19.5779921401
6.6631738658 7.1043930398 22.143774321
2.6582558739 6.5440013396 22.3772727438
0.767004455 8.0792631713 21.2496302854
6.8788759963 6.7496015201 24.7839802037
4.4812782196 7.3918965016 23.9608220055
0.7505103902 7.8792464144 23.900742833
0.3955843191 9.9001616009 16.7887997367
6.6622308311 8.7011728823 18.1670600658
2.7760186559 9.1341490994 22.4648350068
6.3368660943 9.2472032488 23.7037790085
1.2900831977 11.8261341949 18.579512534
0.7500879763 12.3939440935 16.0381146104
6.4358168224 11.1463810318 21.7962298207
2.7595021118 11.4250887042 20.9519259478
4.3392646383 11.0787649333 23.18640773
0.2463651212 10.7702024973 20.7223308045
6.5625466153 11.8044456005 24.4446352086
1.7574198364 11.3458309586 23.4515749561
0.9868728309 13.4499798389 20.708860686
1.4986340676 13.9881933492 23.2835874121
3.2828782715 13.1486484098 24.8306739466
5.6006187457 14.3420208056 24.6210934923
13.7957630626 0.9539514326 18.0334680909
11.1126277624 1.4921927732 18.5978450644
12.8321872705 1.0515941776 20.3976014646
9.3747210822 0.3941253022 20.2179298652
14.4836029775 0.5324601362 22.2740891181
8.6932599569 0.0194772161 22.8201995664
9.6609717807 1.2261163457 25.0608598521
13.6257060369 2.2339723733 15.8104259328
7.4602260223 4.2555381204 15.5365829664
9.0173202943 2.9530858399 19.2290805633
10.5176859917 2.5134322966 21.2242048922
12.6169396519 2.3711342241 22.6330525038
13.5582668748 4.9462194692 15.5824311768
7.6647834397 4.7329465042 18.1403011778
12.5415124014 5.4436731837 18.0028968785
9.0958497106 6.0990750437 16.2574492084
11.1106506027 4.6720365503 22.8213706571
8.0550875181 5.2213999038 20.6933871908
14.5065836349 5.5008467813 19.7433200415
12.348567307 4.2360816836 20.4904292109
13.0456544665 5.1793624166 24.4604667101
11.5741594897 6.6713014156 15.756053663
13.9281872276 7.4073814186 16.7288728863
12.4563492225 7.052311482 22.7177839963
12.1044900087 6.9066931058 20.1424136429
8.3197937185 7.8881171395 20.0582280509
10.7245805037 6.7527330431 24.6385496621
11.2802997333 10.0219857939 15.7589013669
9.4180632524 9.3396535978 17.9419187301
14.5121683922 8.7084334077 18.9795215202
10.7660152845 8.9070536034 21.6615541985
13.1788659231 9.1421774055 21.2133660509
7.9155190656 10.5676116905 19.6924374902
10.3393743277 9.4897389816 24.1664273952
8.805602714 10.8703339285 15.9344340459
10.8213464033 11.6775567766 17.7290680537
13.5231433124 11.8136290251 17.7202005883
11.3390334839 11.5735736868 22.6768166568
8.9400083954 10.6719362654 22.1941133492
12.1221934073 13.761340376 18.9427825125
12.1064520759 13.7346710235 16.4173030677
8.1834250993 12.9527712332 20.92977039
11.9990994545 14.3514131057 22.3757983469
10.5368086982 13.5501965701 24.363959201
13.1501969502 12.8123961599 24.1301305714
3.5061567491 0.4926527559 26.172285081
0.6801655978 12.6071895129 25.4596809621
8.1143055293 13.8312755329 25.2454240315
3.5061567491 0.4926527559 27.152285081
0.6801655978 12.6071895129 26.4396809621
8.1143055293 13.8312755329 26.2254240315
3.2607973535 5.9246144235 24.818054573
6.6228015075 6.5069026547 25.5365293452
4.0423746425 7.0069183521 24.556451077
0.7468073065 7.7694840158 24.7273225704
6.5818950353 12.5128538263 24.8597338343
6.1009311005 13.7816414289 24.9479629762
9.496136083 1.6660576745 25.7407862042
13.3814537292 5.120775095 25.2043739198
10.6806799786 7.5264819482 24.9518852682
10.4880768906 8.8949849175 24.7158241347
13.4968255249 12.6837551777 24.8552939201
4.1230761531 0.1407442439 15.6361063328
0.9046878544 14.4328157966 15.6888833951
6.5786035058 2.4738271074 15.8918987918
0.9208992919 13.0847658409 15.6389283866
13.6155068955 2.8716986496 15.3047382083
7.2789618811 3.4718998709 15.4191258824
13.5817873145 4.2278221976 15.1907408303
9.630939107 6.1833340232 15.6371337718
10.8700939965 6.4694472092 15.3864359991
11.3826282483 10.3600183183 15.0
8.6596671521 10.813481623 15.1210879616
11.8826526162 13.7587883324 15.6313123683
