POSCAR file written by OVITO Basic 3.8.5
   1.00000000000000     
    14.7974653600000003    0.0000000000000000    0.0000000000000000
     0.0000000000000024   14.7974653600000003    0.0000000000000000
     0.0000000000000010    0.0000000000000010   14.7974653600000003
   Si   O 
    64   128
Direct
  0.2436787242831599  0.1200979829906572  0.0032865041439493
  0.3256536463291726  0.1090086431401500  0.3389776731629665
  0.3972772342500110  0.1081828136909815  0.5334323846312500
  0.2282866677724666  0.1237195665574483  0.6709122188640526
  0.2700981320578407  0.9898148368122293  0.8410081208533265
  0.4796563172987338  0.1816704115178261  0.2018219636325757
  0.0338294968303753  0.1840659680775173  0.0126130407711113
  0.4329128237838010  0.2125517027555861  0.9957192740313647
  0.1516461619489468  0.2376784049174694  0.3781678085590576
  0.1689519137324494  0.3337896835620023  0.7131135290002121
  0.0813294506596710  0.3404786674041035  0.5346325036719224
  0.4302579437677106  0.4233295119791390  0.9443416736635593
  0.3933746132105477  0.4898292879533355  0.3912253913553304
  0.0153116713064868  0.5674318824674520  0.3479189072711460
  0.1810125860653435  0.4402395912506620  0.3916990338530644
  0.1168932293013668  0.5331764894647817  0.6915921915487085
  0.4931731550129450  0.4535269318226259  0.5642641511628477
  0.0502183451453150  0.5176374082254229  0.8946590989069660
  0.4113077725956262  0.5150880935404261  0.7634584312266294
  0.2435194797109239  0.4475050315422111  0.8675043025040556
  0.0192384192007602  0.7754557995055686  0.3369405499732060
  0.0901697195917735  0.8043277016730879  0.5348218995752830
  0.1976877993192066  0.7262931704787846  0.6858708466419726
  0.4011187741675044  0.7294984068704446  0.7431709784684788
  0.0737768652249776  0.9309423778391571  0.1976370147848513
  0.4462332648779479  0.8956788782233692  0.0863675214631880
  0.2732550116944884  0.9911370356592155  0.1721853964523018
  0.0733878273504201  0.9891763932435430  0.6454371519232118
  0.4461063631302275  0.8934815342040721  0.8757997982867586
  0.1211863108258416  0.8618287955445606  0.8086821066184778
  0.6050196883274624  0.0348486530457253  0.1301543472136491
  0.8423418139787748  0.0393163259861157  0.4451669310038629
  0.9940574849629829  0.1042583397696797  0.3041075301682183
  0.8740116204136318  0.0581382618609736  0.6538270166804743
  0.6783476568191248  0.1239365664043281  0.5065528388456394
  0.6306012657099078  0.1423216038688812  0.9532373910330564
  0.9194350129014764  0.2371639223711915  0.1678554496163909
  0.7658460608997245  0.2823532508622585  0.0424734340937201
  0.5282937457689874  0.2706162633505123  0.4904439318222495
  0.7898188749565640  0.2357989725828036  0.6417609304172511
  0.6870114750064376  0.4235585521031046  0.1825720139814260
  0.5185687481758534  0.3647175135278539  0.2943103687999709
  0.8725517682418283  0.4137590800699598  0.2854446363856078
  0.8696535175836246  0.3736338234136632  0.4935877973262095
  0.9270001759245374  0.3420983019941857  0.9213108809683010
  0.7971716111960098  0.3992735482311784  0.7686407096395850
  0.5775181199669492  0.5449146670807535  0.0420811112310009
  0.8169809954753735  0.5380086543942669  0.6146456879811026
  0.7188244199150225  0.5609224722891000  0.8751502555739487
  0.5465152722114022  0.6159389135292072  0.4478453964104565
  0.6820451395826371  0.7058967961316899  0.3083837648469820
  0.7038400412498864  0.6879236717309516  0.7000873952692580
  0.9889888165185574  0.6217399611870098  0.5544369143563259
  0.8936347612381484  0.6471692778473541  0.9694668488348208
  0.7761435140276832  0.7229650877596205  0.1301495427511115
  0.5753506687201241  0.7269237707834959  0.1346532359588012
  0.8200690443753288  0.8577811894208632  0.3631385478032255
  0.5344313816682753  0.7672028223837752  0.5956548378094162
  0.9355287383879480  0.8484638341748171  0.8964536603667836
  0.7878952829289000  0.9314369255745797  0.1709824165720440
  0.9396612730024486  0.9893764923962450  0.0491859534041546
  0.5593663159538468  0.9837246410916093  0.6038988802558128
  0.6253895907748626  0.9855558465627541  0.8131107005956096
  0.7929779880618170  0.8815437147992350  0.7461688634237176
  0.2656084874880770  0.0802795372047841  0.1050742405495669
  0.3660497926471245  0.0683032024356156  0.4342196956071932
  0.2840128788339309  0.0278857145839675  0.2766605334919604
  0.0484991911627280  0.0197722135421132  0.2583421722341752
  0.4637460306247138  0.0348490328215317  0.5825677944114204
  0.1438251273789479  0.0713237453110526  0.6190973171415669
  0.3117135622116761  0.1198017619772435  0.6003807600305880
  0.2369430617887946  0.0332930501247027  0.9364488756178427
  0.2486748828809364  0.0648972690565451  0.7625371238296587
  0.4335859896282178  0.1831291599456150  0.1019364930036925
  0.1444104070125891  0.1723293485961166  0.0004258094235421
  0.0143405461656442  0.2359058384843987  0.1091832680958463
  0.2474104951678246  0.1833953874911768  0.3654922269568517
  0.1181123325567967  0.2475120801510226  0.4843490233027962
  0.0689107658285352  0.1818423875379691  0.3301467358265383
  0.4094964322801107  0.1526878109550950  0.2815964356868323
  0.2169809906973704  0.2325182982183366  0.6986043871735046
  0.4403533100399049  0.2101411177754836  0.5202862159761588
  0.3289523687419882  0.1831716288235063  0.9658485210739085
  0.1682046933059888  0.3416924824593459  0.3381162678491815
  0.1525215577293009  0.4200800999778476  0.4983512943445392
  0.4347275652720942  0.4376081554638833  0.3012309180829897
  0.0785270874923279  0.3177947942580423  0.6446253409925727
  0.1972042894181661  0.3532556770356560  0.8223579794734791
  0.4501969950602698  0.3180072569993195  0.9692582138807658
  0.4884637256137253  0.4826641585805909  0.0179287145212402
  0.1133087639428763  0.5162185428036873  0.3479282084472894
  0.2824456515272674  0.4855105171083086  0.3810197887341220
  0.4100763347080038  0.4423235350797505  0.4908122222743171
  0.4502915670813084  0.4801087799119861  0.6642055783985150
  0.1796426488722325  0.4422379901121082  0.6799852012709957
  0.0518335023154343  0.5459896661166050  0.6037800924242358
  0.4648685318040227  0.4561322737331232  0.8426284243713235
  0.3028409332688328  0.4995380169347161  0.7870001003205089
  0.1607294906358470  0.5064488871983621  0.9155238566246371
  0.0507188475809700  0.5324727054735339  0.7829400014393496
  0.3182764162998158  0.4318322061958280  0.9490893181758856
  0.0267332485297522  0.6690444180858223  0.3023209951934582
  0.4502278376065836  0.5880177902535141  0.3954626444966027
  0.1876009565402632  0.6172779511312987  0.6859025837970543
  0.4282399681371974  0.6249180534522493  0.7696293553450533
  0.4990802046377375  0.8041386368417516  0.1174534418217507
  0.0871827144895803  0.7991999918358494  0.4233358280552378
  0.0506903012166725  0.8375720971087814  0.2515903390993542
  0.4349269733562311  0.7532628568920043  0.6407188195638278
  0.1864847826775028  0.7720976820181458  0.5836614889757150
  0.2932437774104372  0.7486934190265984  0.7346658486994800
  0.0166491432950132  0.7278410346165034  0.5681456463859461
  0.4434912639174041  0.7977342952558545  0.8196957810576566
  0.0459650069231725  0.8519830394049958  0.8882917012966982
  0.1187649231564957  0.7667415116446393  0.7525856220958680
  0.3558997857410963  0.9210158890191078  0.1461211941796059
  0.1803232985489679  0.9319709238871403  0.1692757485893895
  0.0169154061068824  0.9315675189251520  0.1028427276890394
  0.0666920183216020  0.9089380857940105  0.5672353473475794
  0.1012764031621524  0.9453100925636042  0.7412331681483348
  0.2218540940399308  0.8885743666194286  0.8457839474119649
  0.3784850046565832  0.9692214481785275  0.8316206803157298
  0.4157854474479686  0.8803003974311580  0.9812920209751796
  0.5687827494276079  0.1137740413536840  0.2013468884914997
  0.6519243096656615  0.0819121412027605  0.0427811669622312
  0.9832670071711942  0.0848971166037012  0.0139310070716913
  0.9323058190692922  0.0644672185022936  0.3864346135699344
  0.7509818399301306  0.1008411060234146  0.4245747247133456
  0.8671881946215549  0.0710658313411782  0.5462007164924390
  0.6335355991151247  0.0266346494234003  0.5340586641171625
  0.9787894497529313  0.0359831986959505  0.6730121404652022
  0.5874830415458847  0.0013162535360404  0.7099178155259698
  0.6528801754651973  0.0828598895732618  0.8613397132082381
  0.8310409702162794  0.2158654570453164  0.1032123031387835
  0.9208135113283147  0.1509699343091707  0.2362033338219910
  0.5041556672600601  0.2875856112438910  0.2176972613439120
  0.6093827608260219  0.1995670047551831  0.4672330775869692
  0.7107761860469364  0.1698555959027274  0.6020618661897675
  0.8526419454215930  0.1602392143804243  0.6972705777721494
  0.5213432806369016  0.1642640444335322  0.9473972500384344
  0.9851361919464764  0.2472694241440957  0.9333903906994107
  0.7000481182414758  0.2307830951113493  0.9670871785047757
  0.7010017468877915  0.3354469508212501  0.1156213052058465
  0.9162560306733305  0.3342612635940124  0.2207956440276478
  0.5179794818377623  0.3198484597910632  0.3936543018266121
  0.8475446366168264  0.3678787583719946  0.3843686372950337
  0.6146897113300419  0.4121702531696550  0.2664127828532122
  0.7508482251772772  0.3157322174170962  0.7099969568332065
  0.5443558962400029  0.3528577210166833  0.5661896618269824
  0.9803424628472343  0.3717425009967714  0.5019849398586198
  0.8345055728524315  0.2862707619543008  0.5524739358595820
  0.8816141243869169  0.3500168637376967  0.8207656603311404
  0.8399769055736802  0.3499830226868383  0.9919212634462298
  0.9994481305044957  0.4254187658252990  0.9302401192954359
  0.6491070949803533  0.5029760490776491  0.1158711785349689
  0.7821717576716413  0.4508408199156424  0.2325289025228876
  0.9412549304021998  0.5005844743237466  0.2982711901167681
  0.8417893821293041  0.4765891529715626  0.7029966592627381
  0.8180110386616394  0.4667483881722398  0.5289553426735792
  0.5622445139161142  0.5330721814583596  0.5232661526699549
  0.7247579394737718  0.4563438993624113  0.8328003532757458
  0.6363879345878568  0.5650420075359202  0.9494880976118864
  0.5326820155748694  0.6330357654882331  0.0935515428181788
  0.8507838368100636  0.6621212859698815  0.0734675811459198
  0.7623129677184134  0.6772771924148451  0.2327213479068697
  0.6364646257489437  0.6311657686352060  0.3802477863979858
  0.9807198759479353  0.5885084503232723  0.4503680917898300
  0.7275580663674657  0.6019310325605727  0.6316175566824759
  0.8906164402148393  0.6178204971673181  0.6013293866048268
  0.5349239800871660  0.7141501218869127  0.4985463407398060
  0.6987260369381337  0.6413084099724030  0.8008947359706559
  0.8190930404392228  0.5833825147018094  0.9176755767297361
  0.9951101130318388  0.5995642458269557  0.9501403614033164
  0.8100084698237596  0.8288942177104273  0.1338321760468526
  0.6748818000422857  0.7330156346026664  0.0829200292595935
  0.5950750685881588  0.7346078307347157  0.2445836955943691
  0.7312972958558177  0.7891592575165848  0.3658635204967075
  0.9138824104910983  0.7983549032038552  0.3652642647973292
  0.7662821441400831  0.7821321696144796  0.7002281216428320
  0.6041580890957554  0.7212002870631681  0.6676074466949692
  0.9010797777321126  0.7499773948815368  0.9310474813605728
  0.5158979529777742  0.9800703440401883  0.0967773074350934
  0.6815566108223771  0.9646125408046132  0.1697522040992825
  0.8511779680761585  0.0033137831265838  0.1154871655051067
  0.8192074191343962  0.9299795634749416  0.4478853012014942
  0.8181436334754965  0.9281772715354540  0.2772155693717124
  0.5530288397528197  0.8753371552551714  0.5821642354059486
  0.8108888355222905  0.9698561717518084  0.6798855627947747
  0.7120684821279001  0.9157106464122184  0.8142437657492461
  0.9035532690426050  0.9302874346042826  0.9632555872454741
  0.5483577985744474  0.9347057213087905  0.8738124019384921
  0.8886790156476039  0.8658507283619131  0.7984418277899348
 
  0.00000000E+00  0.00000000E+00  0.00000000E+00
  0.00000000E+00  0.00000000E+00  0.00000000E+00
  0.00000000E+00  0.00000000E+00  0.00000000E+00
  0.00000000E+00  0.00000000E+00  0.00000000E+00
  0.00000000E+00  0.00000000E+00  0.00000000E+00
  0.00000000E+00  0.00000000E+00  0.00000000E+00
  0.00000000E+00  0.00000000E+00  0.00000000E+00
  0.00000000E+00  0.00000000E+00  0.00000000E+00
  0.00000000E+00  0.00000000E+00  0.00000000E+00
  0.00000000E+00  0.00000000E+00  0.00000000E+00
  0.00000000E+00  0.00000000E+00  0.00000000E+00
  0.00000000E+00  0.00000000E+00  0.00000000E+00
  0.00000000E+00  0.00000000E+00  0.00000000E+00
  0.00000000E+00  0.00000000E+00  0.00000000E+00
  0.00000000E+00  0.00000000E+00  0.00000000E+00
  0.00000000E+00  0.00000000E+00  0.00000000E+00
  0.00000000E+00  0.00000000E+00  0.00000000E+00
  0.00000000E+00  0.00000000E+00  0.00000000E+00
  0.00000000E+00  0.00000000E+00  0.00000000E+00
  0.00000000E+00  0.00000000E+00  0.00000000E+00
  0.00000000E+00  0.00000000E+00  0.00000000E+00
  0.00000000E+00  0.00000000E+00  0.00000000E+00
  0.00000000E+00  0.00000000E+00  0.00000000E+00
  0.00000000E+00  0.00000000E+00  0.00000000E+00
  0.00000000E+00  0.00000000E+00  0.00000000E+00
  0.00000000E+00  0.00000000E+00  0.00000000E+00
  0.00000000E+00  0.00000000E+00  0.00000000E+00
  0.00000000E+00  0.00000000E+00  0.00000000E+00
  0.00000000E+00  0.00000000E+00  0.00000000E+00
  0.00000000E+00  0.00000000E+00  0.00000000E+00
  0.00000000E+00  0.00000000E+00  0.00000000E+00
  0.00000000E+00  0.00000000E+00  0.00000000E+00
  0.00000000E+00  0.00000000E+00  0.00000000E+00
  0.00000000E+00  0.00000000E+00  0.00000000E+00
  0.00000000E+00  0.00000000E+00  0.00000000E+00
  0.00000000E+00  0.00000000E+00  0.00000000E+00
  0.00000000E+00  0.00000000E+00  0.00000000E+00
  0.00000000E+00  0.00000000E+00  0.00000000E+00
  0.00000000E+00  0.00000000E+00  0.00000000E+00
  0.00000000E+00  0.00000000E+00  0.00000000E+00
  0.00000000E+00  0.00000000E+00  0.00000000E+00
  0.00000000E+00  0.00000000E+00  0.00000000E+00
  0.00000000E+00  0.00000000E+00  0.00000000E+00
  0.00000000E+00  0.00000000E+00  0.00000000E+00
  0.00000000E+00  0.00000000E+00  0.00000000E+00
  0.00000000E+00  0.00000000E+00  0.00000000E+00
  0.00000000E+00  0.00000000E+00  0.00000000E+00
  0.00000000E+00  0.00000000E+00  0.00000000E+00
  0.00000000E+00  0.00000000E+00  0.00000000E+00
  0.00000000E+00  0.00000000E+00  0.00000000E+00
  0.00000000E+00  0.00000000E+00  0.00000000E+00
  0.00000000E+00  0.00000000E+00  0.00000000E+00
  0.00000000E+00  0.00000000E+00  0.00000000E+00
  0.00000000E+00  0.00000000E+00  0.00000000E+00
  0.00000000E+00  0.00000000E+00  0.00000000E+00
  0.00000000E+00  0.00000000E+00  0.00000000E+00
  0.00000000E+00  0.00000000E+00  0.00000000E+00
  0.00000000E+00  0.00000000E+00  0.00000000E+00
  0.00000000E+00  0.00000000E+00  0.00000000E+00
  0.00000000E+00  0.00000000E+00  0.00000000E+00
  0.00000000E+00  0.00000000E+00  0.00000000E+00
  0.00000000E+00  0.00000000E+00  0.00000000E+00
  0.00000000E+00  0.00000000E+00  0.00000000E+00
  0.00000000E+00  0.00000000E+00  0.00000000E+00
  0.00000000E+00  0.00000000E+00  0.00000000E+00
  0.00000000E+00  0.00000000E+00  0.00000000E+00
  0.00000000E+00  0.00000000E+00  0.00000000E+00
  0.00000000E+00  0.00000000E+00  0.00000000E+00
  0.00000000E+00  0.00000000E+00  0.00000000E+00
  0.00000000E+00  0.00000000E+00  0.00000000E+00
  0.00000000E+00  0.00000000E+00  0.00000000E+00
  0.00000000E+00  0.00000000E+00  0.00000000E+00
  0.00000000E+00  0.00000000E+00  0.00000000E+00
  0.00000000E+00  0.00000000E+00  0.00000000E+00
  0.00000000E+00  0.00000000E+00  0.00000000E+00
  0.00000000E+00  0.00000000E+00  0.00000000E+00
  0.00000000E+00  0.00000000E+00  0.00000000E+00
  0.00000000E+00  0.00000000E+00  0.00000000E+00
  0.00000000E+00  0.00000000E+00  0.00000000E+00
  0.00000000E+00  0.00000000E+00  0.00000000E+00
  0.00000000E+00  0.00000000E+00  0.00000000E+00
  0.00000000E+00  0.00000000E+00  0.00000000E+00
  0.00000000E+00  0.00000000E+00  0.00000000E+00
  0.00000000E+00  0.00000000E+00  0.00000000E+00
  0.00000000E+00  0.00000000E+00  0.00000000E+00
  0.00000000E+00  0.00000000E+00  0.00000000E+00
  0.00000000E+00  0.00000000E+00  0.00000000E+00
  0.00000000E+00  0.00000000E+00  0.00000000E+00
  0.00000000E+00  0.00000000E+00  0.00000000E+00
  0.00000000E+00  0.00000000E+00  0.00000000E+00
  0.00000000E+00  0.00000000E+00  0.00000000E+00
  0.00000000E+00  0.00000000E+00  0.00000000E+00
  0.00000000E+00  0.00000000E+00  0.00000000E+00
  0.00000000E+00  0.00000000E+00  0.00000000E+00
  0.00000000E+00  0.00000000E+00  0.00000000E+00
  0.00000000E+00  0.00000000E+00  0.00000000E+00
  0.00000000E+00  0.00000000E+00  0.00000000E+00
  0.00000000E+00  0.00000000E+00  0.00000000E+00
  0.00000000E+00  0.00000000E+00  0.00000000E+00
  0.00000000E+00  0.00000000E+00  0.00000000E+00
  0.00000000E+00  0.00000000E+00  0.00000000E+00
  0.00000000E+00  0.00000000E+00  0.00000000E+00
  0.00000000E+00  0.00000000E+00  0.00000000E+00
  0.00000000E+00  0.00000000E+00  0.00000000E+00
  0.00000000E+00  0.00000000E+00  0.00000000E+00
  0.00000000E+00  0.00000000E+00  0.00000000E+00
  0.00000000E+00  0.00000000E+00  0.00000000E+00
  0.00000000E+00  0.00000000E+00  0.00000000E+00
  0.00000000E+00  0.00000000E+00  0.00000000E+00
  0.00000000E+00  0.00000000E+00  0.00000000E+00
  0.00000000E+00  0.00000000E+00  0.00000000E+00
  0.00000000E+00  0.00000000E+00  0.00000000E+00
  0.00000000E+00  0.00000000E+00  0.00000000E+00
  0.00000000E+00  0.00000000E+00  0.00000000E+00
  0.00000000E+00  0.00000000E+00  0.00000000E+00
  0.00000000E+00  0.00000000E+00  0.00000000E+00
  0.00000000E+00  0.00000000E+00  0.00000000E+00
  0.00000000E+00  0.00000000E+00  0.00000000E+00
  0.00000000E+00  0.00000000E+00  0.00000000E+00
  0.00000000E+00  0.00000000E+00  0.00000000E+00
  0.00000000E+00  0.00000000E+00  0.00000000E+00
  0.00000000E+00  0.00000000E+00  0.00000000E+00
  0.00000000E+00  0.00000000E+00  0.00000000E+00
  0.00000000E+00  0.00000000E+00  0.00000000E+00
  0.00000000E+00  0.00000000E+00  0.00000000E+00
  0.00000000E+00  0.00000000E+00  0.00000000E+00
  0.00000000E+00  0.00000000E+00  0.00000000E+00
  0.00000000E+00  0.00000000E+00  0.00000000E+00
  0.00000000E+00  0.00000000E+00  0.00000000E+00
  0.00000000E+00  0.00000000E+00  0.00000000E+00
  0.00000000E+00  0.00000000E+00  0.00000000E+00
  0.00000000E+00  0.00000000E+00  0.00000000E+00
  0.00000000E+00  0.00000000E+00  0.00000000E+00
  0.00000000E+00  0.00000000E+00  0.00000000E+00
  0.00000000E+00  0.00000000E+00  0.00000000E+00
  0.00000000E+00  0.00000000E+00  0.00000000E+00
  0.00000000E+00  0.00000000E+00  0.00000000E+00
  0.00000000E+00  0.00000000E+00  0.00000000E+00
  0.00000000E+00  0.00000000E+00  0.00000000E+00
  0.00000000E+00  0.00000000E+00  0.00000000E+00
  0.00000000E+00  0.00000000E+00  0.00000000E+00
  0.00000000E+00  0.00000000E+00  0.00000000E+00
  0.00000000E+00  0.00000000E+00  0.00000000E+00
  0.00000000E+00  0.00000000E+00  0.00000000E+00
  0.00000000E+00  0.00000000E+00  0.00000000E+00
  0.00000000E+00  0.00000000E+00  0.00000000E+00
  0.00000000E+00  0.00000000E+00  0.00000000E+00
  0.00000000E+00  0.00000000E+00  0.00000000E+00
  0.00000000E+00  0.00000000E+00  0.00000000E+00
  0.00000000E+00  0.00000000E+00  0.00000000E+00
  0.00000000E+00  0.00000000E+00  0.00000000E+00
  0.00000000E+00  0.00000000E+00  0.00000000E+00
  0.00000000E+00  0.00000000E+00  0.00000000E+00
  0.00000000E+00  0.00000000E+00  0.00000000E+00
  0.00000000E+00  0.00000000E+00  0.00000000E+00
  0.00000000E+00  0.00000000E+00  0.00000000E+00
  0.00000000E+00  0.00000000E+00  0.00000000E+00
  0.00000000E+00  0.00000000E+00  0.00000000E+00
  0.00000000E+00  0.00000000E+00  0.00000000E+00
  0.00000000E+00  0.00000000E+00  0.00000000E+00
  0.00000000E+00  0.00000000E+00  0.00000000E+00
  0.00000000E+00  0.00000000E+00  0.00000000E+00
  0.00000000E+00  0.00000000E+00  0.00000000E+00
  0.00000000E+00  0.00000000E+00  0.00000000E+00
  0.00000000E+00  0.00000000E+00  0.00000000E+00
  0.00000000E+00  0.00000000E+00  0.00000000E+00
  0.00000000E+00  0.00000000E+00  0.00000000E+00
  0.00000000E+00  0.00000000E+00  0.00000000E+00
  0.00000000E+00  0.00000000E+00  0.00000000E+00
  0.00000000E+00  0.00000000E+00  0.00000000E+00
  0.00000000E+00  0.00000000E+00  0.00000000E+00
  0.00000000E+00  0.00000000E+00  0.00000000E+00
  0.00000000E+00  0.00000000E+00  0.00000000E+00
  0.00000000E+00  0.00000000E+00  0.00000000E+00
  0.00000000E+00  0.00000000E+00  0.00000000E+00
  0.00000000E+00  0.00000000E+00  0.00000000E+00
  0.00000000E+00  0.00000000E+00  0.00000000E+00
  0.00000000E+00  0.00000000E+00  0.00000000E+00
  0.00000000E+00  0.00000000E+00  0.00000000E+00
  0.00000000E+00  0.00000000E+00  0.00000000E+00
  0.00000000E+00  0.00000000E+00  0.00000000E+00
  0.00000000E+00  0.00000000E+00  0.00000000E+00
  0.00000000E+00  0.00000000E+00  0.00000000E+00
  0.00000000E+00  0.00000000E+00  0.00000000E+00
  0.00000000E+00  0.00000000E+00  0.00000000E+00
  0.00000000E+00  0.00000000E+00  0.00000000E+00
  0.00000000E+00  0.00000000E+00  0.00000000E+00
  0.00000000E+00  0.00000000E+00  0.00000000E+00
  0.00000000E+00  0.00000000E+00  0.00000000E+00
  0.00000000E+00  0.00000000E+00  0.00000000E+00
  0.00000000E+00  0.00000000E+00  0.00000000E+00
  0.00000000E+00  0.00000000E+00  0.00000000E+00
