 H  O Si 
 1.0000000000000000
     3.6993663400000010    3.6993663400000005    0.0000000000000005
    -3.6993663400000001    3.6993663400000005    0.0000000000000000
     0.0000000000000000    0.0000000000000000   21.1652158499999992
 H   O   Si 
   4  12   5
Cartesian
  0.9248415850000002  3.8843346570000001 16.1652158500000027
  2.7745247549999998  3.8843346570000006  5.0000000000000027
  0.9248415850000001  2.0346514870000001  5.0000000000000009
 -0.9248415849999999  5.7340178270000024 16.1652158500000027
  0.9248415850000002  5.7340178270000006  9.6577663400000038
 -0.9248415849999999  5.7340178270000024  7.8080831700000006
 -2.7745247549999994  3.8843346570000015 11.5074495100000007
 -0.9248415849999989  2.0346514870000005 11.5074495100000007
  0.9248415850000001  2.0346514870000001  5.9584000000000019
  2.7745247549999998  3.8843346570000006 13.3571326800000012
 -0.9248415849999999  5.7340178270000024 15.2068158500000035
 -0.9248415850000000  3.8843346570000006  9.6577663400000020
  2.7745247549999998  3.8843346570000006  5.9584000000000019
  0.9248415850000001  2.0346514870000001 13.3571326800000012
  0.9248415850000002  3.8843346570000001  7.8080831700000006
  0.9248415850000002  3.8843346570000001 15.2068158500000035
  0.0000000000000005  4.8091762420000013  8.7329247550000026
  1.8496831700000005  2.9594930720000008 14.2819742650000023
  0.0000000000000003  1.1098099020000003 12.4322910950000001
  1.8496831700000005  2.9594930720000008  6.8832415850000022
 -1.8496831699999998  2.9594930720000008 10.5826079250000014
