Au thin film 1.002
 2.8541970000000001
     0.9999999999999999    0.0000000000000000    0.0000000000000000
    -0.4999999999999998    0.8660254037844387    0.0000000000000000
     0.0000000000000000    0.0000000000000000   15.9350132537228006
 Au 
  12
Direct
  0.1000000000000003  0.0999999999999999  0.2198688098829188
  0.7666666666666666  0.4333333333333332  0.2708017535405700
  0.4333333333333343  0.7666666666666664  0.3217346971982211
  0.1000000000000009  0.1000000000000000  0.3726676408558723
  0.7666666666666674  0.4333333333333332  0.4236005845135234
  0.4333333333333343  0.7666666666666666  0.4745335281711744
  0.1000000000000017  0.0999999999999999  0.5254664718288254
  0.7666666666666687  0.4333333333333332  0.5763994154864766
  0.4333333333333347  0.7666666666666672  0.6273323591441277
  0.1000000000000017  0.1000000000000004  0.6782653028017789
  0.7666666666666689  0.4333333333333342  0.7291982464594300
  0.4333333333333342  0.7666666666666673  0.7801311901170811
