gold_fcc                                
   1.00000000000000     
     0.0000000000000000    2.0408151100000000    2.0408151100000000
     2.0408151100000000    0.0000000000000000    2.0408151100000000
     2.0408151100000000    2.0408151100000000    0.0000000000000000
   Au
     1
Direct
  0.0000000000000000  0.0000000000000000  0.0000000000000000
 
  0.00000000E+00  0.00000000E+00  0.00000000E+00
