Au thin film 1.002
 2.8446780000000000
     1.0000000000000000    0.0000000000000000    0.0000000000000000
    -0.5000000000000000    0.8660254037844387    0.0000000000000000
     0.0000000000000000    0.0000000000000000   15.9584611704511357
 Au 
  12
Direct
  0.1500000000000000  0.1500000000000000  0.2202804092688944
  0.4833333333333331  0.8166666666666661  0.2711385166745500
  0.1500000000000000  0.1500000000000000  0.3219966240802056
  0.4833333333333331  0.8166666666666661  0.3728547314858611
  0.1500000000000000  0.1500000000000000  0.4237128388915166
  0.4833333333333331  0.8166666666666661  0.4745709462971722
  0.1500000000000000  0.1500000000000000  0.5254290537028277
  0.4833333333333331  0.8166666666666661  0.5762871611084833
  0.1500000000000000  0.1500000000000000  0.6271452685141389
  0.4833333333333331  0.8166666666666661  0.6780033759197945
  0.1500000000000000  0.1500000000000000  0.7288614833254500
  0.4833333333333331  0.8166666666666661  0.7797195907311056
