Au HCP thin film 0.960                  
   2.72544000000000     
     1.0000000000000000    0.0000000000000000    0.0000000000000000
    -0.5000000000000000    0.8660254037844387    0.0000000000000000
     0.0000000000000000    0.0000000000000000   17.4898379867995715
   Au
    12
Direct
  0.1499999999999986  0.1499999999999986  0.2051716056905164
  0.4833333333333343  0.8166666666666629  0.2598701660576523
  0.1499999999999986  0.1499999999999986  0.3132548206841506
  0.4833333333333343  0.8166666666666629  0.3665131464101421
  0.1499999999999986  0.1499999999999986  0.4198681216720459
  0.4833333333333343  0.8166666666666629  0.4732754090567681
  0.1499999999999986  0.1499999999999986  0.5267245909432319
  0.4833333333333343  0.8166666666666629  0.5801318783279541
  0.1499999999999986  0.1499999999999986  0.6334868535898579
  0.4833333333333343  0.8166666666666629  0.6867451793158494
  0.1499999999999986  0.1499999999999986  0.7401298339423477
  0.4833333333333343  0.8166666666666629  0.7948283943094836
 
  0.00000000E+00  0.00000000E+00  0.00000000E+00
  0.00000000E+00  0.00000000E+00  0.00000000E+00
  0.00000000E+00  0.00000000E+00  0.00000000E+00
  0.00000000E+00  0.00000000E+00  0.00000000E+00
  0.00000000E+00  0.00000000E+00  0.00000000E+00
  0.00000000E+00  0.00000000E+00  0.00000000E+00
  0.00000000E+00  0.00000000E+00  0.00000000E+00
  0.00000000E+00  0.00000000E+00  0.00000000E+00
  0.00000000E+00  0.00000000E+00  0.00000000E+00
  0.00000000E+00  0.00000000E+00  0.00000000E+00
  0.00000000E+00  0.00000000E+00  0.00000000E+00
  0.00000000E+00  0.00000000E+00  0.00000000E+00
