Au                                      
   1.00000000000000     
     2.8860563274128936    0.0000000000000000    0.0000000000000000
    -1.4430281637064468    2.4993980962923854    0.0000000000000000
     0.0000000000000000    0.0000000000000000   45.9210063606720382
   Au
    12
Direct
  0.1000000000000014  0.1000000000000014  0.2176836617846476
  0.7666666666666657  0.4333333333333300  0.2693692762969064
  0.4333333333333371  0.7666666666666657  0.3204454211333641
  0.1000000000000014  0.1000000000000014  0.3716950644781747
  0.7666666666666657  0.4333333333333300  0.4230060581528079
  0.4333333333333371  0.7666666666666657  0.4743440833944561
  0.1000000000000014  0.1000000000000014  0.5256559166055439
  0.7666666666666657  0.4333333333333300  0.5769939418471921
  0.4333333333333371  0.7666666666666657  0.6283049355218253
  0.1000000000000014  0.1000000000000014  0.6795545788666359
  0.7666666666666657  0.4333333333333300  0.7306307237030936
  0.4333333333333371  0.7666666666666657  0.7823163382153524
 
  0.00000000E+00  0.00000000E+00  0.00000000E+00
  0.00000000E+00  0.00000000E+00  0.00000000E+00
  0.00000000E+00  0.00000000E+00  0.00000000E+00
  0.00000000E+00  0.00000000E+00  0.00000000E+00
  0.00000000E+00  0.00000000E+00  0.00000000E+00
  0.00000000E+00  0.00000000E+00  0.00000000E+00
  0.00000000E+00  0.00000000E+00  0.00000000E+00
  0.00000000E+00  0.00000000E+00  0.00000000E+00
  0.00000000E+00  0.00000000E+00  0.00000000E+00
  0.00000000E+00  0.00000000E+00  0.00000000E+00
  0.00000000E+00  0.00000000E+00  0.00000000E+00
  0.00000000E+00  0.00000000E+00  0.00000000E+00
