Au                                      
   1.00000000000000     
     2.8860563274128936    0.0000000000000000    0.0000000000000000
    -1.4430281637064468    2.4993980962923854    0.0000000000000000
     0.0000000000000000    0.0000000000000000   45.9210063606720382
   Au
    12
Direct
  0.1000000000000014  0.1000000000000014  0.2176836617846466
  0.7666666666666657  0.4333333333333300  0.2693692762969048
  0.4333333333333371  0.7666666666666657  0.3204454211333652
  0.1000000000000014  0.1000000000000014  0.3716950644781771
  0.7666666666666657  0.4333333333333300  0.4230060581528049
  0.4333333333333371  0.7666666666666657  0.4743440833944549
  0.1000000000000014  0.1000000000000014  0.5256559166055453
  0.7666666666666657  0.4333333333333300  0.5769939418471952
  0.4333333333333371  0.7666666666666657  0.6283049355218229
  0.1000000000000014  0.1000000000000014  0.6795545788666346
  0.7666666666666657  0.4333333333333300  0.7306307237030951
  0.4333333333333371  0.7666666666666657  0.7823163382153535
 
  0.00000000E+00  0.00000000E+00  0.00000000E+00
  0.00000000E+00  0.00000000E+00  0.00000000E+00
  0.00000000E+00  0.00000000E+00  0.00000000E+00
  0.00000000E+00  0.00000000E+00  0.00000000E+00
  0.00000000E+00  0.00000000E+00  0.00000000E+00
  0.00000000E+00  0.00000000E+00  0.00000000E+00
  0.00000000E+00  0.00000000E+00  0.00000000E+00
  0.00000000E+00  0.00000000E+00  0.00000000E+00
  0.00000000E+00  0.00000000E+00  0.00000000E+00
  0.00000000E+00  0.00000000E+00  0.00000000E+00
  0.00000000E+00  0.00000000E+00  0.00000000E+00
  0.00000000E+00  0.00000000E+00  0.00000000E+00
