Au bulk (0001)-base 1.000               
   2.83900000000000     
     1.0000000000000000    0.0000000000000000    0.0000000000000000
    -0.5000000000000000    0.8660254037844387    0.0000000000000000
     0.0000000000000000    0.0000000000000000   10.2290626798264679
   Au
    12
Direct
  0.1500000009263070  0.1500000016122232  0.0416666758863312
  0.4833333338294076  0.8166666668052850  0.1250000185954170
  0.1499999992571176  0.1499999992647907  0.2083333562091925
  0.4833333319637229  0.8166666652094662  0.2916666787627495
  0.1500000008160180  0.1499999999623931  0.3750000017575473
  0.4833333332601282  0.8166666674281984  0.4583333269092316
  0.1500000004784727  0.1500000014730546  0.5416666500955393
  0.4833333332924015  0.8166666655558282  0.6249999841451646
  0.1499999994756757  0.1499999988514689  0.7083333227107631
  0.4833333316035158  0.8166666653165525  0.7916666551102245
  0.1500000022572176  0.1500000010500173  0.8749999933858592
  0.4833333328400125  0.8166666674706908  0.9583333364319803
 
  0.00000000E+00  0.00000000E+00  0.00000000E+00
  0.00000000E+00  0.00000000E+00  0.00000000E+00
  0.00000000E+00  0.00000000E+00  0.00000000E+00
  0.00000000E+00  0.00000000E+00  0.00000000E+00
  0.00000000E+00  0.00000000E+00  0.00000000E+00
  0.00000000E+00  0.00000000E+00  0.00000000E+00
  0.00000000E+00  0.00000000E+00  0.00000000E+00
  0.00000000E+00  0.00000000E+00  0.00000000E+00
  0.00000000E+00  0.00000000E+00  0.00000000E+00
  0.00000000E+00  0.00000000E+00  0.00000000E+00
  0.00000000E+00  0.00000000E+00  0.00000000E+00
  0.00000000E+00  0.00000000E+00  0.00000000E+00
