Au HCP thin film 1.003
 2.8485000000000000
     1.0000000000000002    0.0000000000000000    0.0000000000000000
    -0.5000000000000001    0.8660254037844387    0.0000000000000000
     0.0000000000000000    0.0000000000000000   15.9131390835782867
 Au 
  12
Direct
  0.1500000000000000  0.1500000000000000  0.2206113832051224
  0.4833333333333331  0.8166666666666663  0.2714093135314638
  0.1500000000000000  0.1500000000000000  0.3222072438578052
  0.4833333333333331  0.8166666666666663  0.3730051741841465
  0.1500000000000000  0.1500000000000000  0.4238031045104879
  0.4833333333333331  0.8166666666666663  0.4746010348368292
  0.1500000000000000  0.1500000000000000  0.5253989651631705
  0.4833333333333331  0.8166666666666663  0.5761968954895120
  0.1500000000000000  0.1500000000000000  0.6269948258158533
  0.4833333333333331  0.8166666666666663  0.6777927561421949
  0.1500000000000000  0.1500000000000000  0.7285906864685361
  0.4833333333333331  0.8166666666666663  0.7793886167948775
