Au thin film 1.001
 2.8418389999999998
     1.0000000000000000    0.0000000000000000    0.0000000000000000
    -0.5000000000000000    0.8660254037844387    0.0000000000000000
     0.0000000000000000    0.0000000000000000   15.9922681670528934
 Au 
  12
Direct
  0.1500000000000000  0.1500000000000000  0.2200343407016915
  0.4833333333333332  0.8166666666666662  0.2709371878468385
  0.1500000000000000  0.1500000000000000  0.3218400349919855
  0.4833333333333332  0.8166666666666662  0.3727428821371324
  0.1500000000000000  0.1500000000000000  0.4236457292822794
  0.4833333333333332  0.8166666666666662  0.4745485764274264
  0.1500000000000000  0.1500000000000000  0.5254514235725734
  0.4833333333333332  0.8166666666666662  0.5763542707177204
  0.1500000000000000  0.1500000000000000  0.6272571178628674
  0.4833333333333332  0.8166666666666662  0.6781599650080146
  0.1500000000000000  0.1500000000000000  0.7290628121531613
  0.4833333333333332  0.8166666666666662  0.7799656592983084
