Generated by VASPKIT code               
   1.00000000000000     
     2.8861484068579393    0.0000000000000000    0.0000000000000000
    -1.4430742034289696    2.4994778394309618    0.0000000000000000
     0.0000000000000000    0.0000000000000000   45.9218333687446290
   Au
    12
Selective dynamics
Direct
  0.1000000000000014  0.1000000000000014  0.2177613406612409   F   F   F
  0.7666666666666657  0.4333333333333300  0.2690774605410198   F   F   F
  0.4333333333333300  0.7666666666666657  0.3201461122017690   T   T   T
  0.1000000000000014  0.1000000000000014  0.3713968098451943   T   T   T
  0.7666666666666657  0.4333333333333300  0.4227055671834563   T   T   T
  0.4333333333333300  0.7666666666666657  0.4740397479400400   T   T   T
  0.0999999999999943  0.1000000000000014  0.5253515216047120   T   T   T
  0.7666666666666657  0.4333333333333300  0.5766863721419924   T   T   T
  0.4333333333333300  0.7666666666666657  0.6279941537915619   T   T   T
  0.0999999999999943  0.1000000000000014  0.6792411052150555   T   T   T
  0.7666666666666657  0.4333333333333300  0.7303119136215201   T   T   T
  0.4333333333333300  0.7666666666666657  0.7819939309304473   T   T   T
 
  0.00000000E+00  0.00000000E+00  0.00000000E+00
  0.00000000E+00  0.00000000E+00  0.00000000E+00
  0.00000000E+00  0.00000000E+00  0.00000000E+00
  0.00000000E+00  0.00000000E+00  0.00000000E+00
  0.00000000E+00  0.00000000E+00  0.00000000E+00
  0.00000000E+00  0.00000000E+00  0.00000000E+00
  0.00000000E+00  0.00000000E+00  0.00000000E+00
  0.00000000E+00  0.00000000E+00  0.00000000E+00
  0.00000000E+00  0.00000000E+00  0.00000000E+00
  0.00000000E+00  0.00000000E+00  0.00000000E+00
  0.00000000E+00  0.00000000E+00  0.00000000E+00
  0.00000000E+00  0.00000000E+00  0.00000000E+00
