Au                                      
   1.00000000000000     
     2.8861484068579393    0.0000000000000000    0.0000000000000000
    -1.4430742034289696    2.4994778394309618    0.0000000000000000
     0.0000000000000000    0.0000000000000000   45.9218333687446290
   Au
    12
Direct
  0.1000000000000014  0.1000000000000014  0.2176990376972905
  0.7666666666666657  0.4333333333333300  0.2693819064931821
  0.4333333333333300  0.7666666666666657  0.3204542239623174
  0.1000000000000014  0.1000000000000014  0.3717014495684779
  0.7666666666666657  0.4333333333333300  0.4230107117462832
  0.4333333333333300  0.7666666666666657  0.4743456181168001
  0.0999999999999943  0.1000000000000014  0.5256543818832000
  0.7666666666666657  0.4333333333333300  0.5769892882537170
  0.4333333333333300  0.7666666666666657  0.6282985504315222
  0.0999999999999943  0.1000000000000014  0.6795457760376826
  0.7666666666666657  0.4333333333333300  0.7306180935068253
  0.4333333333333300  0.7666666666666657  0.7823009623027096
 
  0.00000000E+00  0.00000000E+00  0.00000000E+00
  0.00000000E+00  0.00000000E+00  0.00000000E+00
  0.00000000E+00  0.00000000E+00  0.00000000E+00
  0.00000000E+00  0.00000000E+00  0.00000000E+00
  0.00000000E+00  0.00000000E+00  0.00000000E+00
  0.00000000E+00  0.00000000E+00  0.00000000E+00
  0.00000000E+00  0.00000000E+00  0.00000000E+00
  0.00000000E+00  0.00000000E+00  0.00000000E+00
  0.00000000E+00  0.00000000E+00  0.00000000E+00
  0.00000000E+00  0.00000000E+00  0.00000000E+00
  0.00000000E+00  0.00000000E+00  0.00000000E+00
  0.00000000E+00  0.00000000E+00  0.00000000E+00
