Au thin film 0.997
 2.8304830000000001
     1.0000000000000000    0.0000000000000000    0.0000000000000000
    -0.5000000000000000    0.8660254037844387    0.0000000000000000
     0.0000000000000000    0.0000000000000000   16.1287148434990115
 Au 
  12
Direct
  0.1500000000000000  0.1500000000000000  0.2190481983661527
  0.4833333333333331  0.8166666666666662  0.2701303441177613
  0.1500000000000000  0.1500000000000000  0.3212124898693699
  0.4833333333333331  0.8166666666666662  0.3722946356209785
  0.1500000000000000  0.1500000000000000  0.4233767813725870
  0.4833333333333331  0.8166666666666662  0.4744589271241956
  0.1500000000000000  0.1500000000000000  0.5255410728758041
  0.4833333333333331  0.8166666666666662  0.5766232186274129
  0.1500000000000000  0.1500000000000000  0.6277053643790214
  0.4833333333333331  0.8166666666666662  0.6787875101306301
  0.1500000000000000  0.1500000000000000  0.7298696558822384
  0.4833333333333331  0.8166666666666662  0.7809518016338473
