Au thin film 1.003
 2.8570454999999999
     0.9999999999999999    0.0000000000000000    0.0000000000000000
    -0.4999999999999998    0.8660254037844387    0.0000000000000000
     0.0000000000000000    0.0000000000000000   15.9013503466622090
 Au 
  12
Direct
  0.1000000000000003  0.0999999999999999  0.2201145934312871
  0.7666666666666666  0.4333333333333331  0.2710028491710531
  0.4333333333333343  0.7666666666666664  0.3218911049108191
  0.1000000000000009  0.1000000000000000  0.3727793606505851
  0.7666666666666674  0.4333333333333332  0.4236676163903511
  0.4333333333333343  0.7666666666666666  0.4745558721301170
  0.1000000000000018  0.0999999999999999  0.5254441278698829
  0.7666666666666688  0.4333333333333331  0.5763323836096488
  0.4333333333333347  0.7666666666666672  0.6272206393494149
  0.1000000000000018  0.1000000000000005  0.6781088950891809
  0.7666666666666689  0.4333333333333342  0.7289971508289469
  0.4333333333333343  0.7666666666666673  0.7798854065687129
