Au thin film 0.997
 2.8399545000000002
     0.9999999999999999    0.0000000000000000    0.0000000000000000
    -0.4999999999999998    0.8660254037844386    0.0000000000000000
     0.0000000000000000    0.0000000000000000   16.1051493344099512
 Au 
  12
Direct
  0.1000000000000003  0.0999999999999999  0.2186371017598741
  0.7666666666666665  0.4333333333333331  0.2697939923489879
  0.4333333333333343  0.7666666666666664  0.3209508829381016
  0.1000000000000009  0.1000000000000000  0.3721077735272155
  0.7666666666666675  0.4333333333333332  0.4232646641163293
  0.4333333333333343  0.7666666666666666  0.4744215547054431
  0.1000000000000017  0.0999999999999999  0.5255784452945568
  0.7666666666666687  0.4333333333333331  0.5767353358836704
  0.4333333333333347  0.7666666666666672  0.6278922264727844
  0.1000000000000017  0.1000000000000004  0.6790491170618983
  0.7666666666666690  0.4333333333333342  0.7302060076510121
  0.4333333333333343  0.7666666666666673  0.7813628982401259
