Au bulk (111)-base 1.000                
   2.84850000000000     
     0.9999999999999999    0.0000000000000000    0.0000000000000000
    -0.4999999999999998    0.8660254037844387    0.0000000000000000
     0.0000000000000000    0.0000000000000000   10.1052327777343134
   Au
    12
Direct
  0.1000000004334753  0.0999999987264706  0.0416666703036477
  0.7666666707710593  0.4333333386242615  0.1249999963960152
  0.4333333308358009  0.7666666640637408  0.2083333236797382
  0.0999999990386431  0.0999999978100427  0.2916666594582975
  0.7666666703924981  0.4333333372724566  0.3749999894688194
  0.4333333284830083  0.7666666650345021  0.4583333215004396
  0.1000000000896231  0.0999999970465864  0.5416666640672997
  0.7666666716344409  0.4333333385839906  0.6250000021555557
  0.4333333294470882  0.7666666642784756  0.7083333400766298
  0.0999999996972818  0.0999999971938514  0.7916666822027376
  0.7666666702264409  0.4333333365888701  0.8750000124361381
  0.4333333289506573  0.7666666647767472  0.9583333382546815
 
  0.00000000E+00  0.00000000E+00  0.00000000E+00
  0.00000000E+00  0.00000000E+00  0.00000000E+00
  0.00000000E+00  0.00000000E+00  0.00000000E+00
  0.00000000E+00  0.00000000E+00  0.00000000E+00
  0.00000000E+00  0.00000000E+00  0.00000000E+00
  0.00000000E+00  0.00000000E+00  0.00000000E+00
  0.00000000E+00  0.00000000E+00  0.00000000E+00
  0.00000000E+00  0.00000000E+00  0.00000000E+00
  0.00000000E+00  0.00000000E+00  0.00000000E+00
  0.00000000E+00  0.00000000E+00  0.00000000E+00
  0.00000000E+00  0.00000000E+00  0.00000000E+00
  0.00000000E+00  0.00000000E+00  0.00000000E+00
