 H  O Si 
 1.0000000000000000
     7.3987326799999993    0.0000000000000000    0.0000000000000005
     0.0000000000000012    7.3987326799999993    0.0000000000000005
     0.0000000000000000    0.0000000000000000   21.1652158499999956
 H   O   Si 
   8  24  10
Cartesian
  0.9248415850000004  2.7745247549999998 16.1652158499999992
  0.9248415850000000  0.9248415849999999  5.0000000000000000
  6.4738910949999999  6.4738910949999990  5.0000000000000018
  4.6242079250000003  4.6242079249999994  5.0000000000000000
  2.7745247550000003  2.7745247549999998  5.0000000000000000
  4.6242079250000003  6.4738910949999990 16.1652158499999992
  6.4738910949999999  4.6242079249999994 16.1652158499999992
  2.7745247549999998  0.9248415849999999 16.1652158499999992
  2.7745247550000007  6.4738910949999990  9.6577663400000002
  6.4738910949999999  6.4738910949999990 13.3571326799999994
  0.9248415850000009  6.4738910949999990 11.5074495099999989
  2.7745247550000003  2.7745247549999998  5.9584000000000010
  6.4738910949999999  4.6242079249999994  7.8080831699999997
  6.4738910949999999  6.4738910949999990  5.9584000000000010
  0.9248415850000004  2.7745247549999998  7.8080831699999997
  6.4738910949999999  2.7745247549999998  9.6577663400000002
  0.9248415850000000  0.9248415849999999 13.3571326799999994
  4.6242079250000003  6.4738910949999990 15.2068158499999999
  4.6242079250000003  4.6242079249999994  5.9584000000000010
  2.7745247550000003  2.7745247549999998 13.3571326799999994
  2.7745247549999998  0.9248415849999999  7.8080831699999997
  0.9248415850000000  0.9248415849999999  5.9584000000000010
  6.4738910949999990  0.9248415849999999 11.5074495099999989
  4.6242079250000003  6.4738910949999990  7.8080831699999997
  2.7745247550000007  4.6242079249999994 11.5074495099999989
  2.7745247549999998  0.9248415849999999 15.2068158499999999
  4.6242079250000003  2.7745247549999998 11.5074495099999989
  0.9248415850000004  2.7745247549999998 15.2068158499999999
  4.6242079249999994  0.9248415849999999  9.6577663400000002
  4.6242079250000003  4.6242079249999994 13.3571326799999994
  6.4738910949999999  4.6242079249999994 15.2068158499999999
  0.9248415850000007  4.6242079249999994  9.6577663400000002
  3.6993663399999996  0.0000000000000000  8.7329247550000009
  5.5490495099999997  1.8496831699999998 10.5826079249999996
  0.0000000000000000  0.0000000000000000 12.4322910949999983
  5.5490495100000006  5.5490495099999997 14.2819742650000006
  3.6993663400000001  3.6993663399999996 12.4322910950000001
  1.8496831700000000  1.8496831699999998 14.2819742649999988
  0.0000000000000006  3.6993663399999996  8.7329247550000009
  1.8496831700000000  1.8496831699999998  6.8832415850000004
  1.8496831700000007  5.5490495099999997 10.5826079249999996
  5.5490495100000006  5.5490495099999997  6.8832415850000004
