Au                                      
   1.00000000000000     
     2.8861484068579393    0.0000000000000000    0.0000000000000000
    -1.4430742034289696    2.4994778394309618    0.0000000000000000
     0.0000000000000000    0.0000000000000000   45.9218333687446290
   Au
    12
Selective dynamics
Direct
  0.1000000000000014  0.1000000000000014  0.2177184625378743   T   T   T
  0.7666666666666657  0.4333333333333300  0.2694002829831490   T   T   T
  0.4333333333333300  0.7666666666666657  0.3204721084776310   T   T   T
  0.1000000000000014  0.1000000000000014  0.3717196760313399   T   T   T
  0.7666666666666657  0.4333333333333300  0.4230258201803423   F   F   F
  0.4333333333333300  0.7666666666666657  0.4743419400601141   F   F   F
  0.0999999999999943  0.1000000000000014  0.5256580599398859   F   F   F
  0.7666666666666657  0.4333333333333300  0.5769741798196577   F   F   F
  0.4333333333333300  0.7666666666666657  0.6282803239686601   T   T   T
  0.0999999999999943  0.1000000000000014  0.6795278915223690   T   T   T
  0.7666666666666657  0.4333333333333300  0.7305997170168581   T   T   T
  0.4333333333333300  0.7666666666666657  0.7822815374621257   T   T   T
 
  0.00000000E+00  0.00000000E+00  0.00000000E+00
  0.00000000E+00  0.00000000E+00  0.00000000E+00
  0.00000000E+00  0.00000000E+00  0.00000000E+00
  0.00000000E+00  0.00000000E+00  0.00000000E+00
  0.00000000E+00  0.00000000E+00  0.00000000E+00
  0.00000000E+00  0.00000000E+00  0.00000000E+00
  0.00000000E+00  0.00000000E+00  0.00000000E+00
  0.00000000E+00  0.00000000E+00  0.00000000E+00
  0.00000000E+00  0.00000000E+00  0.00000000E+00
  0.00000000E+00  0.00000000E+00  0.00000000E+00
  0.00000000E+00  0.00000000E+00  0.00000000E+00
  0.00000000E+00  0.00000000E+00  0.00000000E+00
