Au thin film 0.999
 2.8456514999999998
     1.0000000000000000    0.0000000000000000    0.0000000000000000
    -0.4999999999999999    0.8660254037844388    0.0000000000000000
     0.0000000000000000    0.0000000000000000   16.0367282723431188
 Au 
  12
Direct
  0.1000000000000003  0.0999999999999999  0.2191303424516012
  0.7666666666666665  0.4333333333333331  0.2701975529149464
  0.4333333333333342  0.7666666666666663  0.3212647633782917
  0.1000000000000009  0.1000000000000000  0.3723319738416370
  0.7666666666666673  0.4333333333333332  0.4233991843049823
  0.4333333333333343  0.7666666666666665  0.4744663947683275
  0.1000000000000017  0.0999999999999999  0.5255336052316726
  0.7666666666666687  0.4333333333333331  0.5766008156950176
  0.4333333333333346  0.7666666666666671  0.6276680261583630
  0.1000000000000017  0.1000000000000004  0.6787352366217084
  0.7666666666666690  0.4333333333333342  0.7298024470850537
  0.4333333333333342  0.7666666666666672  0.7808696575483989
